*Heading
** Job name: Axisy_LD_part Model name: Axisy_verify_Dbi
** Generated by: Abaqus/CAE 2023
*Preprint, echo=NO, model=NO, history=NO, contact=NO
**
** PARTS
**
*Part, name=Part-1
*Node
      1,   7.49889326,   2.02576995
      2,          7.5,           2.
      3,   7.49560356,   2.05135393
      4,          7.5,   1.83440006
      5,          7.5,   1.75160003
      6,          7.5,   1.58599997
      7,          7.5,   1.42040002
      8,          7.5,   1.25911999
      9,          7.5,   1.01719999
     10,          7.5,  0.855920076
     11,          7.5,  0.614000082
     12,          7.5,  0.460500062
     13,          7.5,  0.307000041
     14,          7.5,  0.153500021
     15,          7.5,           0.
     16,   9.83870983,           0.
     17,   9.67741966,           0.
     18,   9.43548393,           0.
     19,   9.27419376,           0.
     20,   9.11290359,           0.
     21,   8.95161247,           0.
     22,    8.7903223,           0.
     23,   8.54838753,           0.
     24,   8.38709641,           0.
     25,   8.22580624,           0.
     26,   8.06451607,           0.
     27,   7.82258081,           0.
     28,   7.66129017,           0.
     29,          10.,           0.
     30,          10.,  0.159999996
     31,          10.,  0.319999993
     32,          10.,  0.479999989
     33,          10.,  0.639999986
     34,          10.,  0.800000012
     35,          10.,   1.03999996
     36,          10.,   1.20000005
     37,          10.,   1.36000001
     38,          10.,   1.51999998
     39,          10.,   1.67999995
     40,          10.,   1.84000003
     41,          10.,           2.
     42,          10.,   2.16000009
     43,          10.,   2.31999993
     44,          10.,   2.48000002
     45,          10.,    2.6400001
     46,          10.,   2.79999995
     47,          10.,   2.96000004
     48,          10.,   3.20000005
     49,          10.,    3.3599999
     50,          10.,   3.51999998
     51,          10.,   3.68000007
     52,          10.,   3.83999991
     53,          10.,           4.
     54,  0.159999996,           4.
     55,  0.319999993,           4.
     56,  0.479999989,           4.
     57,  0.639999986,           4.
     58,  0.800000012,           4.
     59,   1.03999996,           4.
     60,   1.20000005,           4.
     61,   1.36000001,           4.
     62,   1.51999998,           4.
     63,   1.67999995,           4.
     64,   1.84000003,           4.
     65,           2.,           4.
     66,   2.16000009,           4.
     67,   2.31999993,           4.
     68,   2.48000002,           4.
     69,    2.6400001,           4.
     70,   2.79999995,           4.
     71,   3.03999996,           4.
     72,   3.20000005,           4.
     73,    3.3599999,           4.
     74,   3.51999998,           4.
     75,   3.68000007,           4.
     76,   3.83999991,           4.
     77,           4.,           4.
     78,   4.15999985,           4.
     79,   4.32000017,           4.
     80,   4.48000002,           4.
     81,   4.63999987,           4.
     82,   4.80000019,           4.
     83,   5.03999996,           4.
     84,   5.19999981,           4.
     85,   5.36000013,           4.
     86,   5.51999998,           4.
     87,   5.67999983,           4.
     88,   5.84000015,           4.
     89,           6.,           4.
     90,   6.15999985,           4.
     91,   6.32000017,           4.
     92,   6.48000002,           4.
     93,   6.63999987,           4.
     94,   6.80000019,           4.
     95,   7.03999996,           4.
     96,   7.19999981,           4.
     97,   7.36000013,           4.
     98,   7.51999998,           4.
     99,   7.67999983,           4.
    100,   7.84000015,           4.
    101,           8.,           4.
    102,   8.15999985,           4.
    103,   8.31999969,           4.
    104,   8.47999954,           4.
    105,   8.64000034,           4.
    106,   8.80000019,           4.
    107,   9.03999996,           4.
    108,   9.19999981,           4.
    109,   9.35999966,           4.
    110,   9.52000046,           4.
    111,   9.68000031,           4.
    112,   9.84000015,           4.
    113,           0.,           4.
    114,           0.,   3.58333325
    115,           0.,         3.75
    116,           0.,   3.83333325
    117,           0.,          3.5
    118,  0.240459919,   3.49922895
    119,  0.400761634,   3.49785709
    120,  0.821598411,   3.49097252
    121,  0.737437725,   3.49273157
    122,  0.569105446,   3.49567533
    123,  0.989906669,   3.48687696
    124,   1.21410584,   3.48021555
    125,   1.43825936,   3.47216034
    126,   1.99968135,   3.44570088
    127,   1.83932006,   3.45419264
    128,   1.59870815,   3.46552563
    129,   2.16000032,   3.43644547
    130,    2.3030529,   3.42752862
    131,   2.44606471,   3.41798115
    132,   2.89441729,   3.38379693
    133,   2.74502254,   3.39592052
    134,   2.59557009,   3.40730977
    135,   3.04374909,   3.37092066
    136,   3.64980531,   3.31040335
    137,   3.42269516,   3.33469343
    138,   3.27117634,   3.34980607
    139,   3.80108786,    3.2930851
    140,   4.28104639,   3.23162723
    141,   4.12120676,   3.25324631
    142,   3.96121573,   3.27371526
    143,   4.44071817,   3.20880151
    144,   4.93220186,   3.13001561
    145,   4.76861429,   3.15776205
    146,   4.60477686,   3.18399382
    147,   5.09550619,   3.10065103
    148,   5.71068859,   2.97237921
    149,   5.48072624,   3.02394605
    150,   5.32689667,   3.05591989
    151,   5.86337328,   2.93532562
    152,   6.30018568,   2.81382203
    153,   6.15533972,   2.85701323
    154,   6.00968981,   2.89741015
    155,   6.44404221,   2.76744556
    156,   6.65608644,   2.69127464
    157,   6.86400127,   2.60449934
    158,   7.05941153,   2.50654531
    159,   7.18394232,   2.43085837
    160,   7.30256701,   2.34190726
    161,   7.40639353,   2.23624849
    162,   7.47683764,   2.11779571
    163,   7.65519333,  0.850325942
    164,   9.81819725,   2.16354609
    165,   9.71694565,   2.13449049
    166,   9.52073669,   2.20780754
    167,   9.31681538,   2.13382125
    168,   9.16931534,   2.14769292
    169,   8.98406219,   2.16786814
    170,   8.75664043,   2.17319894
    171,   8.67657089,   2.17315888
    172,    8.4899807,   2.17597795
    173,   8.35599804,   2.13564682
    174,   8.17499447,   2.14261913
    175,   8.01955318,   2.10616803
    176,   7.82072926,   2.19160295
    177,    7.6595211,   2.18671966
    178,   7.67136955,   2.00881195
    179,   7.83419752,   2.02516246
    180,   7.97692871,   1.97148788
    181,   8.11448574,   1.98171461
    182,   8.34396553,   1.98100615
    183,    8.5344429,   2.00485897
    184,   8.64503098,   1.99234986
    185,   8.81871128,   1.99089158
    186,   8.99435616,   2.00494981
    187,   9.16845036,   2.00480604
    188,   9.31970596,   2.00578356
    189,   9.46995926,   1.97976613
    190,   9.70639038,    2.0165298
    191,   9.84242249,   2.00162148
    192,   7.67758465,   1.84604812
    193,   7.85075331,    1.7914834
    194,   8.07024765,   1.75014114
    195,   8.20551586,   1.83942246
    196,   8.35387516,   1.85821426
    197,    8.5548687,   1.86114407
    198,   8.67004299,   1.80844164
    199,   8.82284164,   1.78638017
    200,   9.01153851,   1.82145715
    201,   9.16063404,   1.80099034
    202,   9.32779503,   1.81872737
    203,   9.51062393,   1.81810319
    204,   9.62319565,   1.84745133
    205,    9.8249073,   1.84960806
    206,   7.65769386,   1.66926527
    207,   7.80977011,   1.64959645
    208,   7.98414183,    1.6044898
    209,   8.18443012,   1.63308537
    210,   8.31842041,   1.70895123
    211,   8.51019001,   1.65666699
    212,   8.68094349,   1.66256702
    213,   8.81638527,   1.66209829
    214,   8.99932384,   1.69230402
    215,   9.16737175,   1.67029619
    216,   9.33634949,   1.65825057
    217,   9.51247025,   1.64949799
    218,   9.68977451,   1.63414478
    219,   9.81674767,    1.6206367
    220,   7.65048695,   1.50981998
    221,   7.78464651,   1.51872003
    222,   8.01375008,    1.4914254
    223,   8.17365456,   1.48337865
    224,   8.33533955,   1.44652236
    225,   8.47463036,    1.4938724
    226,   8.68145084,   1.46099198
    227,   8.83596039,   1.43277144
    228,   8.96877289,   1.45668161
    229,   9.14364719,    1.5097177
    230,   9.32109261,   1.49345791
    231,   9.49001884,   1.47972107
    232,   9.69451427,   1.50251424
    233,   9.84791851,   1.45228887
    234,   7.65744495,   1.35287845
    235,    7.8069396,   1.38827157
    236,   8.14435768,   1.32673788
    237,   8.35704136,   1.32108223
    238,   8.52495956,   1.33760357
    239,   8.66100025,   1.33358085
    240,   8.80562115,   1.32880461
    241,   9.02433777,    1.3398279
    242,   9.18269157,   1.31187391
    243,   9.29132462,   1.32242835
    244,   9.50055981,   1.37943363
    245,   9.64284134,   1.35748923
    246,   9.84344196,   1.30271041
    247,   7.68738222,   1.18516743
    248,   7.92627382,   1.12997866
    249,   8.02148342,   1.19764459
    250,   8.18869019,   1.18090582
    251,   8.33518124,   1.13799918
    252,   8.50149059,   1.17561102
    253,   8.67663479,   1.17780936
    254,   8.85209751,   1.14857745
    255,   9.00459576,   1.15572798
    256,   9.16645908,    1.2061156
    257,   9.30359936,   1.19149661
    258,   9.47109699,   1.16432524
    259,   9.68093967,   1.14121389
    260,    9.8048811,   1.13884389
    261,   7.66133118,   1.00914168
    262,   7.82302189,  0.994442701
    263,   7.98894453,  0.983979404
    264,   8.15166473,  0.974554658
    265,    8.3314085,    1.0047636
    266,   8.52823162,  0.974671006
    267,    8.6490345,  0.998190045
    268,   8.84877682,  0.989756048
    269,   9.02225876,  0.934420466
    270,   9.18507385,     1.036695
    271,   9.33858013,   1.01307023
    272,   9.54139328,  0.964778006
    273,   9.68169403,  0.952361643
    274,    9.8348074,  0.962724864
    275,   7.65061951,   0.69423008
    276,   7.80328655,  0.691767514
    277,   7.96413517,  0.685493171
    278,   8.14659882,  0.673659742
    279,   8.31803989,   0.66258508
    280,   8.48889446,  0.638652444
    281,   8.65722466,   0.66268748
    282,   8.83299923,  0.665549338
    283,   9.03777695,  0.667446434
    284,   9.17583752,  0.695544183
    285,   9.34276104,   0.64693445
    286,   9.51120949,  0.642003953
    287,   9.71973324,  0.668162763
    288,   9.85118866,  0.655854583
    289,   9.84438705,  0.808441281
    290,   9.68882275,  0.803020656
    291,   9.51428223,  0.815060377
    292,   9.34726906,  0.838413358
    293,   9.18536472,  0.868149877
    294,   9.06010723,  0.804626465
    295,   8.80272579,  0.834743559
    296,   8.65729427,  0.833945453
    297,   8.47655296,  0.824165702
    298,   8.31172752,  0.833541334
    299,    8.2056179,   0.83398807
    300,   8.05747032,  0.832753956
    301,   7.81292439,  0.843260407
    302,   7.64528418,  0.543062806
    303,   7.79092932,  0.547414541
    304,   7.99143124,  0.473859161
    305,   8.19659805,  0.510116756
    306,   8.35009289,  0.529725909
    307,   8.51492691,  0.478806823
    308,    8.6764164,  0.490732014
    309,   8.84098721,  0.491745174
    310,   9.01190853,  0.516711056
    311,   9.17937565,  0.513139307
    312,   9.31700897,  0.497361213
    313,   9.46589184,  0.506314635
    314,   9.67166805,  0.474773288
    315,    9.8517437,  0.498778999
    316,   7.72343969,  0.277454585
    317,   7.84640694,  0.356405288
    318,   7.99341774,  0.298296988
    319,   8.15008068,  0.288860768
    320,   8.30032921,  0.301777154
    321,   8.45302677,   0.31500122
    322,   8.69106102,  0.328983516
    323,   8.85573959,  0.328265309
    324,   9.01582718,  0.313043028
    325,   9.14211941,  0.361319602
    326,    9.3181181,  0.372264415
    327,   9.42260742,  0.381278574
    328,   9.70239258,  0.382606536
    329,   9.83266163,  0.336935878
    330,   7.68620491,   0.16909416
    331,    7.8475647,  0.125956789
    332,   7.98955965,  0.137869611
    333,   8.14861298,  0.148339823
    334,   8.30714226,   0.15235202
    335,   8.46421051,  0.158142269
    336,   8.70188236,  0.165514991
    337,   8.86222744,  0.164682582
    338,    9.0201807,  0.156826407
    339,   9.17611313,  0.149633244
    340,   9.33109093,  0.156122655
    341,   9.50012493,  0.199363828
    342,   9.68522835,  0.244116858
    343,   9.83899498,  0.159806281
    344,   9.83489132,   2.32892227
    345,   9.67358398,   2.34192181
    346,   9.51809025,   2.34697652
    347,   9.36957836,    2.3462472
    348,   9.21792126,   2.33554149
    349,   8.99506283,   2.35376024
    350,   8.84815979,   2.38227582
    351,   8.67089939,   2.35329628
    352,   8.50967407,   2.34777021
    353,   8.32948589,   2.29283309
    354,    8.1874733,   2.33332038
    355,    8.0278244,   2.33990836
    356,   7.87381935,   2.33205891
    357,   7.68216276,   2.34883428
    358,   7.51866484,   2.35970402
    359,   9.83708858,   2.48758984
    360,   9.68048191,   2.47923136
    361,   9.51849556,   2.46962857
    362,   9.36640072,   2.50472903
    363,   9.18300819,   2.49984741
    364,   9.00996208,   2.48439431
    365,   8.80891418,   2.47847319
    366,   8.65686798,   2.54748988
    367,   8.46401024,   2.48495173
    368,   8.33165741,   2.48618126
    369,   7.95592499,   2.47397232
    370,   7.85247469,    2.5273068
    371,   7.67655182,   2.48431635
    372,   7.52455473,   2.52328134
    373,    7.3320303,   2.49109507
    374,   7.17084646,   2.53072476
    375,   9.80654335,   2.64634347
    376,    9.6613636,   2.61061287
    377,   9.50833893,   2.67466879
    378,   9.34538269,   2.67198253
    379,    9.1374197,   2.71844411
    380,   8.98080635,   2.66449261
    381,   8.85760117,   2.69526768
    382,   8.64618683,   2.68268418
    383,   8.48134518,   2.72991228
    384,   8.34430885,   2.67358422
    385,    8.1815424,   2.62254596
    386,   8.04511261,   2.61951041
    387,   7.87673569,   2.64782333
    388,   7.64442396,   2.69277644
    389,   7.52450323,   2.67029691
    390,   7.31894827,   2.68745112
    391,   7.16762018,   2.71108794
    392,    6.9661212,   2.70213866
    393,   6.63600445,   2.85258722
    394,   9.81437969,   2.80230856
    395,   9.71472836,   2.80143452
    396,    9.5229845,   2.82965946
    397,   9.33705902,   2.84582305
    398,   9.15611744,   2.85567188
    399,   9.02858543,   2.85225105
    400,    8.8121109,   2.81794643
    401,   8.67730331,   2.84498119
    402,   8.50589943,    2.8826642
    403,   8.32350922,   2.82329512
    404,   7.98529387,   2.81910396
    405,   7.84569788,   2.78430152
    406,   7.51463556,   2.83625484
    407,    7.3619585,   2.86336303
    408,   7.12914228,   2.86257696
    409,   6.93682528,   2.86171865
    410,   6.86439705,   2.82588077
    411,   6.46796894,   2.83580494
    412,   9.81802368,   2.96677399
    413,   9.63588905,   3.00529671
    414,   9.53534031,   3.01480699
    415,   9.31543732,   2.96339989
    416,   9.19768524,   2.95409894
    417,   9.02659035,   3.00308871
    418,   8.84003735,   2.98197746
    419,    8.6850338,   3.00908113
    420,   8.51801014,   2.99697828
    421,   8.35682011,   3.01008868
    422,   8.14810848,   2.97554946
    423,   7.94874334,   3.02140141
    424,   7.83576727,   2.98231244
    425,   7.68557978,   2.90224004
    426,   7.49704742,    2.9901123
    427,   7.34872866,   3.00416565
    428,   7.13872194,    3.0159986
    429,   7.01855326,   2.97451091
    430,   6.89828539,   3.04597807
    431,   6.67811537,   3.02534819
    432,   6.51118469,   2.98074651
    433,   6.36585474,   3.01406407
    434,    6.2010088,   2.99366117
    435,   5.96285152,   2.98852777
    436,   5.80778027,   3.03111219
    437,   5.51608849,   3.16701508
    438,   9.81474018,   3.19177985
    439,   9.69175529,   3.18820977
    440,   9.49476147,   3.18297291
    441,   9.35830784,   3.15488935
    442,   9.18037224,   3.14651632
    443,   9.01119328,   3.16815877
    444,    8.7947998,   3.15214181
    445,   8.69057751,   3.19256091
    446,   8.52749825,   3.17763972
    447,   8.33758831,   3.15048432
    448,   8.18690968,   3.14838004
    449,   8.04261494,   3.08930516
    450,   7.81009102,   3.13566875
    451,   7.62736607,   3.16238856
    452,   7.45517492,   3.14326239
    453,   7.29475689,   3.12901926
    454,   7.12030506,   3.13665771
    455,   7.00798607,   3.10375094
    456,   6.83698463,   3.16837001
    457,   6.67189693,   3.18762326
    458,   6.50681686,   3.13024426
    459,   6.33171177,   3.20404553
    460,   6.17881918,   3.15467572
    461,   5.96131372,   3.18543506
    462,    5.8296504,   3.18637586
    463,   5.67846775,   3.21219754
    464,   5.26771498,   3.17291689
    465,   5.09861231,   3.18710303
    466,   9.84489059,   3.35785079
    467,   9.70720673,   3.34992814
    468,   9.51978302,   3.34676361
    469,   9.34759426,   3.33286738
    470,   9.18162823,   3.30707979
    471,   9.01081371,   3.32722449
    472,   8.77472496,   3.37660456
    473,   8.63561153,   3.35363579
    474,   8.46107292,   3.34227633
    475,   8.35223293,   3.31351972
    476,   8.19229603,   3.31795859
    477,   8.00540161,   3.27778959
    478,   7.82878923,   3.33659458
    479,   7.69661951,   3.33274174
    480,   7.50106287,   3.31257749
    481,   7.34732533,   3.32921529
    482,   7.15015268,   3.32783723
    483,   6.98563385,   3.30857301
    484,   6.82666016,   3.31421733
    485,   6.72987509,   3.34310555
    486,    6.5112896,   3.31153107
    487,   6.29989719,   3.33957291
    488,   6.21491909,    3.3424747
    489,   5.98562241,   3.29694057
    490,   5.84030724,   3.40885329
    491,   5.62864017,   3.37821865
    492,   5.46999073,    3.3343842
    493,   5.32151508,   3.35156798
    494,   5.17403173,   3.35116196
    495,   5.01957655,   3.35673928
    496,   4.85169649,   3.36059952
    497,   4.63187981,   3.31634188
    498,   4.47887945,   3.35558987
    499,   4.29817915,   3.31369662
    500,   4.13542366,   3.33290315
    501,   3.97493792,   3.35036635
    502,   9.83508492,   3.51362753
    503,   9.65341377,   3.47726345
    504,   9.48218822,   3.50500488
    505,   9.31416893,   3.52067614
    506,   9.15563107,   3.47891593
    507,   9.02697754,     3.486022
    508,   8.80431938,   3.52341104
    509,   8.62398624,   3.52733588
    510,   8.49770164,   3.47679663
    511,   8.34291649,     3.519032
    512,    8.1524744,    3.5104692
    513,    7.9721117,   3.47563124
    514,   7.84929085,   3.52117252
    515,   7.67913342,   3.51388407
    516,   7.51010656,   3.48753858
    517,   7.34124184,   3.48790002
    518,   7.15781307,   3.54430342
    519,   6.98225117,   3.51642632
    520,   6.83262777,   3.48373246
    521,   6.66182137,    3.4869864
    522,   6.49485397,   3.46665263
    523,   6.34661007,   3.46911359
    524,    6.1608901,   3.51042867
    525,   6.00801373,     3.488729
    526,   5.78536367,   3.48863053
    527,    5.7232976,   3.49408078
    528,   5.48685932,   3.49348783
    529,   5.32622576,   3.51575947
    530,   5.16622114,   3.51005316
    531,   5.02285719,   3.47554779
    532,   4.83861208,   3.52930546
    533,   4.53143311,   3.49069118
    534,   4.33884001,   3.48852158
    535,   4.15680885,    3.4835999
    536,   4.00367308,   3.50317717
    537,   3.84900355,   3.52233672
    538,   3.67285442,   3.53915167
    539,   3.52816343,   3.53165674
    540,   3.36363244,   3.49702263
    541,   3.13001847,   3.51981068
    542,   2.97323775,   3.52764654
    543,   2.82250381,   3.52416992
    544,   2.68044567,   3.53431988
    545,   2.45521808,   3.48727536
    546,     2.309793,   3.49815321
    547,   2.16245556,    3.5053184
    548,   9.82392502,   3.67513776
    549,   9.63647556,   3.62874007
    550,   9.53717327,   3.63542557
    551,   9.33676243,   3.68451905
    552,   9.16262245,   3.69391918
    553,    9.0031929,   3.64775825
    554,   8.84894657,   3.67927837
    555,   8.64141464,   3.69314933
    556,    8.5002203,   3.69215083
    557,   8.35905075,   3.68344498
    558,   8.16692638,   3.62764716
    559,   7.95561075,   3.65734434
    560,   7.79736567,    3.6959753
    561,   7.61487913,   3.64698553
    562,   7.52880335,   3.63371301
    563,   7.31112766,   3.66387653
    564,   7.14956379,   3.70030951
    565,   6.96835804,   3.68340278
    566,   6.83775568,   3.65622163
    567,   6.66486263,   3.65638852
    568,   6.47932529,   3.70859218
    569,   6.32748127,   3.61436152
    570,   6.17514324,   3.62320518
    571,   5.96322775,   3.64652157
    572,   5.81761789,     3.680619
    573,   5.61632061,   3.64040589
    574,   5.52867126,   3.62936735
    575,    5.3313179,   3.67708111
    576,   5.16421509,   3.68540525
    577,    5.0115447,   3.69126439
    578,   4.85084105,   3.65717077
    579,   4.66632986,   3.67362618
    580,   4.50566673,   3.70033145
    581,   4.31100273,   3.65227199
    582,   4.18981314,   3.68873906
    583,   3.98517513,   3.67764664
    584,   3.84077311,    3.7031424
    585,   3.60645795,   3.69839072
    586,   3.47326803,   3.71482921
    587,   3.34686375,   3.67733574
    588,   3.15662408,   3.71416211
    589,   2.81701136,   3.64717627
    590,   2.63377309,   3.68926072
    591,   2.47217798,   3.62782979
    592,   2.08531618,   3.65157795
    593,   1.95230794,   3.63021302
    594,   1.84122002,   3.69362712
    595,   1.65011585,   3.72380638
    596,   1.50546074,   3.71949935
    597,   1.34705305,   3.68918633
    598,   1.18378937,   3.69361591
    599,   1.00713241,   3.67675924
    600,  0.803342581,   3.68371701
    601,  0.624871075,   3.67868447
    602,  0.458065897,   3.63913965
    603,  0.308702379,   3.63265944
    604,  0.164344177,   3.65280867
    605,   9.83760548,   3.84259844
    606,    9.6178236,   3.86002302
    607,   9.46399403,   3.81077266
    608,   9.28988552,    3.8419683
    609,   9.12855721,   3.80978155
    610,   8.95187759,   3.83089972
    611,   8.79306507,   3.84384203
    612,   8.63941479,   3.84859133
    613,   8.48825073,   3.84650278
    614,   8.33516121,   3.83930945
    615,   8.17407227,   3.81800389
    616,   7.98785543,   3.83067751
    617,   7.76995754,   3.85435867
    618,   7.62150908,   3.85035443
    619,   7.45606041,   3.80887151
    620,    7.2851162,   3.84399557
    621,   7.13507795,   3.84838152
    622,   6.98630524,   3.83647275
    623,   6.81591368,   3.79270649
    624,   6.63680792,   3.83329153
    625,   6.48310518,   3.84833264
    626,   6.33171034,   3.84373569
    627,   6.17318153,   3.81827736
    628,   5.98859167,   3.82793999
    629,   5.76722765,   3.86220527
    630,   5.62362146,    3.8495543
    631,    5.4588623,   3.80868316
    632,   5.28504801,     3.843256
    633,    5.1354537,   3.84695649
    634,   4.98289919,   3.83588886
    635,   4.81095839,   3.79852557
    636,   4.63711166,   3.83734226
    637,   4.48337412,    3.8434689
    638,   4.31598902,   3.81876159
    639,   4.14669991,   3.84216881
    640,   3.99477696,   3.84593582
    641,   3.76384568,   3.84640551
    642,    3.6112926,   3.84948158
    643,   3.45883274,   3.84960008
    644,   3.30751252,   3.83901548
    645,    3.1488564,   3.81223011
    646,   2.96548557,   3.82212663
    647,   2.79684925,   3.84254026
    648,   2.64032197,   3.84217143
    649,   2.48353744,    3.8448925
    650,   2.32586026,    3.8486197
    651,   2.17007089,   3.85379553
    652,   2.01805091,   3.85294628
    653,   1.84664714,   3.81729412
    654,   1.67053974,    3.8264997
    655,   1.50401664,   3.83205819
    656,   1.35521328,   3.86525249
    657,   1.13253522,   3.81907654
    658,  0.953739464,   3.83611631
    659,   0.79823631,   3.84233952
    660,  0.645727992,   3.84753776
    661,  0.492913604,   3.85413098
    662,  0.338314265,     3.849612
    663,  0.174374089,   3.83256412
    664,          7.5,   1.91719997
    665,          7.5,       1.6688
    666,          7.5,   1.50320005
    667,          7.5,   1.33976007
    668,          7.5,   1.17848003
    669,          7.5,   1.09784007
    670,          7.5,  0.936560035
    671,          7.5,  0.775280058
    672,          7.5,    0.6946401
    673,          7.5,  0.537250102
    674,          7.5,  0.383750051
    675,          7.5,  0.230250031
    676,          7.5, 0.0767500103
    677,   9.91935444,           0.
    678,   9.75806427,           0.
    679,    9.5967741,           0.
    680,   9.51612949,           0.
    681,   9.35483837,           0.
    682,    9.1935482,           0.
    683,   9.03225803,           0.
    684,   8.87096786,           0.
    685,    8.7096777,           0.
    686,   8.62903214,           0.
    687,   8.46774197,           0.
    688,    8.3064518,           0.
    689,   8.14516163,           0.
    690,   7.98387098,           0.
    691,    7.9032259,           0.
    692,   7.74193525,           0.
    693,   7.58064508,           0.
    694,          10., 0.0799999982
    695,          10.,  0.239999995
    696,          10.,  0.400000006
    697,          10.,  0.560000002
    698,          10.,  0.720000029
    699,          10.,  0.879999995
    700,          10.,  0.959999979
    701,          10.,         1.12
    702,          10.,   1.27999997
    703,          10.,   1.44000006
    704,          10.,   1.60000002
    705,          10.,   1.75999999
    706,          10.,   1.91999996
    707,          10.,   2.07999992
    708,          10.,   2.24000001
    709,          10.,    2.4000001
    710,          10.,   2.55999994
    711,          10.,   2.72000003
    712,          10.,   2.88000011
    713,          10.,   3.03999996
    714,          10.,   3.11999989
    715,          10.,   3.27999997
    716,          10.,   3.44000006
    717,          10.,    3.5999999
    718,          10.,   3.75999999
    719,          10.,   3.92000008
    720, 0.0799999982,           4.
    721,  0.239999995,           4.
    722,  0.400000006,           4.
    723,  0.560000002,           4.
    724,  0.720000029,           4.
    725,  0.879999995,           4.
    726,  0.959999979,           4.
    727,         1.12,           4.
    728,   1.27999997,           4.
    729,   1.44000006,           4.
    730,   1.60000002,           4.
    731,   1.75999999,           4.
    732,   1.91999996,           4.
    733,   2.07999992,           4.
    734,   2.24000001,           4.
    735,    2.4000001,           4.
    736,   2.55999994,           4.
    737,   2.72000003,           4.
    738,   2.88000011,           4.
    739,   2.96000004,           4.
    740,   3.11999989,           4.
    741,   3.27999997,           4.
    742,   3.44000006,           4.
    743,    3.5999999,           4.
    744,   3.75999999,           4.
    745,   3.92000008,           4.
    746,   4.07999992,           4.
    747,   4.23999977,           4.
    748,    4.4000001,           4.
    749,   4.55999994,           4.
    750,   4.71999979,           4.
    751,   4.88000011,           4.
    752,   4.96000004,           4.
    753,   5.11999989,           4.
    754,   5.28000021,           4.
    755,   5.44000006,           4.
    756,    5.5999999,           4.
    757,   5.76000023,           4.
    758,   5.92000008,           4.
    759,   6.07999992,           4.
    760,   6.23999977,           4.
    761,    6.4000001,           4.
    762,   6.55999994,           4.
    763,   6.71999979,           4.
    764,   6.88000011,           4.
    765,   6.96000004,           4.
    766,   7.11999989,           4.
    767,   7.28000021,           4.
    768,   7.44000006,           4.
    769,    7.5999999,           4.
    770,   7.76000023,           4.
    771,   7.92000008,           4.
    772,   8.07999992,           4.
    773,   8.23999977,           4.
    774,   8.39999962,           4.
    775,   8.56000042,           4.
    776,   8.72000027,           4.
    777,   8.88000011,           4.
    778,   8.96000004,           4.
    779,   9.11999989,           4.
    780,   9.27999973,           4.
    781,   9.43999958,           4.
    782,   9.60000038,           4.
    783,   9.76000023,           4.
    784,   9.92000008,           4.
    785,           0.,   3.66666675
    786,           0.,   3.91666675
    787,  0.320611507,   3.49862885
    788,  0.160307214,   3.49965739
    789, 0.0801537931,   3.49991441
    790,  0.905754864,    3.4890213
    791,  0.653273284,   3.49429893
    792,  0.484934777,   3.49686122
    793,   1.36354721,   3.47500157
    794,   1.28882921,   3.47768641
    795,   1.13937747,   3.48258996
    796,   1.06464422,   3.48481011
    797,   2.07984638,    3.4411695
    798,   1.91950572,   3.45004129
    799,   1.75912499,   3.45815611
    800,   1.67892087,   3.46193337
    801,   1.51848757,    3.4689343
    802,   2.37456393,    3.4228344
    803,   2.23153138,   3.43206525
    804,   2.96909142,   3.37745404
    805,   2.81972742,   3.38995171
    806,   2.67030334,   3.40170574
    807,   2.52082372,   3.41273427
    808,   3.72545981,   3.30185938
    809,   3.57412577,   3.31872106
    810,   3.49842191,   3.32681632
    811,   3.34694624,   3.34235549
    812,   3.19538641,   3.35704827
    813,   3.11957693,   3.36408567
    814,   4.36090422,    3.2203691
    815,    4.2011466,   3.24258399
    816,   4.04122925,   3.26362133
    817,   3.88116813,   3.28353477
    818,    5.0138917,   3.11554265
    819,   4.85044098,   3.14408422
    820,   4.68672514,   3.17106128
    821,   4.52277374,    3.1965704
    822,   5.78710032,    2.9541378
    823,   5.63414955,   2.99007797
    824,   5.55749226,   3.00725913
    825,   5.40385866,    3.0401597
    826,   5.24984694,   3.07124424
    827,   5.17271519,   3.08614945
    828,   6.37225151,   2.79106045
    829,    6.2278738,    2.8357892
    830,   6.08260584,   2.87753987
    831,   5.93660736,   2.91666126
    832,   6.79527569,   2.63479853
    833,   6.72594166,   2.66367793
    834,   6.58578157,   2.71770406
    835,   6.51508427,   2.74306607
    836,   7.12242842,   2.46993661
    837,   6.99519491,   2.54100823
    838,   6.93000221,   2.57358766
    839,   7.35698652,   2.29153037
    840,   7.24457073,   2.38813376
    841,   7.44602871,    2.1796279
    842,    7.5593977,   2.02906179
    843,    7.5555706,   2.07922602
    844,   7.60808945,   2.03202701
    845,   7.56256437,   1.98224175
    846,   7.60930109,   2.08145595
    847,   7.61875105,   1.98533404
    848,   5.72857428,   3.04712462
    849,   7.58053303,   1.83514631
    850,   7.66110086,   2.07492971
    851,   7.50371552,   2.22829509
    852,   7.45748711,   2.29032516
    853,   7.22861195,   2.48275876
    854,   5.88731813,   3.01329088
    855,   2.23646331,   3.50240445
    856,   2.38250422,   3.49312401
    857,   7.02315712,   2.61534452
    858,   6.95108128,   2.63898635
    859,   6.88439417,    2.6669395
    860,   7.40128326,   2.34188914
    861,   7.34375191,   2.39121485
    862,   7.28638792,   2.43793941
    863,   0.99515456,   3.54892182
    864,   1.14019966,   3.54393411
    865,   1.21238208,   3.54656243
    866,   1.06760228,   3.54514384
    867,   1.28710341,   3.54971123
    868,   1.36580169,   3.55300689
    869,   5.82335615,   3.10770226
    870,   2.89685631,   3.45562673
    871,   2.82211542,   3.45787072
    872,   2.74762177,   3.46170282
    873,   2.67475462,   3.46734953
    874,   2.52870917,   3.48081756
    875,     2.972615,   3.45295548
    876,   6.81724739,   2.69617343
    877,    6.7488904,   2.72549915
    878,   6.67942333,   2.75504637
    879,   6.60935211,    2.7846005
    880,   6.53933716,   2.81199098
    881,   6.24940777,    2.9022758
    882,   6.32212877,   2.88053489
    883,   6.39530849,   2.85833025
    884,   6.17780113,   2.92317295
    885,   6.10618114,   2.94317698
    886,   3.04826021,   3.44891453
    887,   3.73778391,   3.38013411
    888,   3.12464619,   3.44218111
    889,   3.20160246,   3.43453574
    890,    3.2784009,   3.42675328
    891,    3.3543427,   3.41847968
    892,   3.43062663,   3.40842748
    893,   3.50789046,   3.39901257
    894,   3.66084123,   3.38651276
    895,   3.58438659,   3.39213657
    896,   7.57228088,  0.540576577
    897,    7.5712719,  0.389550358
    898,   7.58000374,  0.236738488
    899,   7.58533239, 0.0808807239
    900,   7.57125235,  0.465090662
    901,   7.57388401,  0.313983977
    902,   7.58741713,  0.159553632
    903,   7.62177229,   2.13778949
    904,   2.75010943,   3.52668953
    905,   2.24047661,   3.57220197
    906,   7.55140781,   2.15968728
    907,   7.64008999,   1.92498422
    908,   7.10834169,   2.59601784
    909,   7.22619438,   2.57817054
    910,   6.41739225,   2.92641187
    911,   2.53778028,   3.55064082
    912,    1.1391331,   3.60418606
    913,   1.20528948,   3.61447883
    914,   1.28025341,   3.61952662
    915,   1.36119127,   3.62562537
    916,   1.07143784,   3.60656929
    917,   2.89662957,   3.52479482
    918,   6.49217176,    2.9072144
    919,   6.90529776,   2.73088264
    920,    6.0349822,   2.96543694
    921,   1.44674492,   3.55459523
    922,   6.27168751,   2.97185564
    923,   6.34391308,   2.94824052
    924,   6.77337837,   2.78835082
    925,   3.44092536,   3.48105907
    926,   3.59297323,   3.46440244
    927,   3.67012644,   3.46332121
    928,   3.75050998,   3.46050453
    929,   6.84043407,   2.75998139
    930,   7.64196825,  0.397264391
    931,   3.81565571,   3.37089825
    932,   5.74286938,   3.12197733
    933,   7.56107998,   2.28411078
    934,    5.5745163,   3.07844567
    935,   5.42421818,   3.11148906
    936,    5.1798892,    3.1786716
    937,   5.65088224,   3.06286263
    938,   5.49861813,   3.09472799
    939,   5.34936142,   3.13261676
    940,   7.38819551,   2.44687963
    941,   2.31547761,   3.56806898
    942,   9.91770649,   1.92178357
    943,  0.958740652,   3.91673613
    944,  0.721578956,   3.92221141
    945,  0.565541267,   3.92564201
    946,   9.92474937,  0.648141205
    947,   9.92172909,  0.805332363
    948,   9.92509747,  0.568471372
    949,   9.92399979,  0.727009237
    950,   9.91923904,  0.883981943
    951,   9.91585255,  0.963805079
    952,  0.643652141,   3.92439103
    953,  0.799770772,   3.92113972
    954,  0.878867626,    3.9197166
    955,   9.91839695,  0.160263523
    956, 0.0834951848,   3.91539216
    957,   9.91910076, 0.0797525868
    958,  0.407262623,   3.92587233
    959,  0.247094423,   3.92047977
    960,   9.92522049,  0.489526868
    961,   9.91731071,  0.326476872
    962,     9.917243,  0.242576748
    963,   9.92369175,  0.409606367
    964,  0.165855736,   3.91656065
    965,   0.32790187,   3.92395163
    966,  0.486577898,   3.92661357
    967,   8.71829987,   3.92356229
    968,   8.56165409,   3.92450476
    969,    8.9579277,   3.91459608
    970,   9.12192726,   3.90926003
    971,   9.28602123,   3.91795468
    972,   9.45033836,   3.91182566
    973,   9.60775661,   3.92742682
    974,   9.76230812,   3.92570996
    975,   9.91241741,   3.03687572
    976,   9.91814041,   3.84016037
    977,   8.40503216,   3.92190552
    978,   8.24586964,   3.91436529
    979,   8.08121681,   3.90520239
    980,   7.91932917,    3.9224937
    981,     7.765306,   3.92765713
    982,   7.60892773,   3.92397404
    983,   7.44786453,   3.91114521
    984,   7.28498363,   3.92085576
    985,   7.12731028,   3.92354035
    986,   6.97053528,   3.91566467
    987,   6.72444248,    3.9072876
    988,   6.56155205,   3.92018127
    989,   6.40351725,   3.92312384
    990,   6.24440861,   3.91550493
    991,   6.08125496,   3.90496683
    992,   5.92004633,   3.92255592
    993,   5.76370144,   3.93050027
    994,   5.60913944,   3.92419815
    995,      4.07584,   3.92242002
    996,   3.91984749,   3.92360353
    997,   5.44900227,   3.91062498
    998,   5.28488684,   3.92056298
    999,   5.12718153,   3.92321754
   1000,   4.96931982,   3.91604805
   1001,    4.7234621,   3.90969849
   1002,    4.5606246,   3.91977262
   1003,   4.39994669,   3.91612649
   1004,   4.23569489,   3.91577387
   1005,   3.76249504,   3.92394471
   1006,   3.60629225,   3.92506742
   1007,   3.44937682,   3.92435765
   1008,   3.29218125,   3.91892505
   1009,   3.13392568,   3.90888596
   1010,   2.96526432,    3.9109385
   1011,   2.71977043,     3.919976
   1012,   2.56164789,   3.92113376
   1013,   2.40306401,   3.92236257
   1014,   2.24443221,   3.92451692
   1015,   2.08685398,   3.92582583
   1016,   1.92526078,   3.91766691
   1017,   1.75880659,    3.9137125
   1018,   1.59444618,   3.91771078
   1019,   1.43720412,   3.92632508
   1020,    1.2813586,   3.93083453
   1021,   1.12240076,    3.9141047
   1022,   9.91242695,   2.16300654
   1023,   9.91935539,   2.00096035
   1024,   9.91373634,   1.84252393
   1025,   9.91893387,   1.68568134
   1026,   9.91885853,   1.52835441
   1027,   9.92345905,   1.36919439
   1028,    9.9135294,   1.20995915
   1029,   9.91106892,   1.04617679
   1030,   9.91641426,   2.32381487
   1031,   9.91594028,   2.48883057
   1032,   9.95188046,   2.64304018
   1033,   9.91772461,   2.78135943
   1034,   9.90590572,   2.95727134
   1035,   9.91307831,   3.19525075
   1036,   9.92084599,   3.35816097
   1037,      9.91819,   3.51837325
   1038,   9.91431618,   3.67771173
   1039,   9.90748215,   1.12901556
   1040,   9.92009163,   1.28948259
   1041,   9.92265892,   1.44804633
   1042,   9.91538334,    1.6081264
   1043,   9.91214848,   1.76436996
   1044,   9.91720295,   2.08158398
   1045,   9.91401482,   2.24321961
   1046,   9.91729641,   2.40473938
   1047,   9.91208172,   2.58556652
   1048,   9.93437195,   2.70513654
   1049,   9.88989353,   2.86590743
   1050,   9.91400909,   3.11605334
   1051,    9.9174118,   3.27614212
   1052,    9.9203558,   3.43872523
   1053,   9.91537476,   3.59795094
   1054,   9.91550922,   3.75840616
   1055,   1.04020727,   3.91393685
   1056,   1.20204234,    3.9245472
   1057,   1.35895646,   3.93122578
   1058,    1.5144062,    3.9197576
   1059,   1.67599702,   3.91423178
   1060,   1.84257233,   3.91171384
   1061,   2.00748253,   3.92389369
   1062,    2.1656096,   3.92625427
   1063,   2.32354164,   3.92391801
   1064,   2.48219252,   3.92216849
   1065,   2.64046788,   3.92099214
   1066,   2.79936576,   3.91923213
   1067,   2.88129878,   3.91645527
   1068,    3.0499835,   3.90998411
   1069,   3.21338511,   3.91385698
   1070,   3.37047172,   3.92246962
   1071,   3.52788067,   3.92536783
   1072,   3.68422842,   3.92464852
   1073,   3.84085441,   3.92383838
   1074,   3.99766397,   3.92359591
   1075,   4.15485716,   3.92006111
   1076,   4.31765223,   3.91233802
   1077,   4.48067856,   3.91975808
   1078,   4.64131021,   3.91617799
   1079,   4.80587387,   3.90464616
   1080,   4.88792276,   3.90995312
   1081,   5.04880857,   3.92061353
   1082,   5.20555401,   3.92338896
   1083,   5.36618662,   3.91489792
   1084,   5.52958918,   3.91691685
   1085,   5.68651485,   3.92886567
   1086,   5.84158945,   3.92873693
   1087,   5.99994135,   3.91316152
   1088,    6.1628828,   3.90869856
   1089,   6.32427835,   3.92065215
   1090,   6.48228359,   3.92313766
   1091,   6.64175272,   3.91475677
   1092,   6.80797529,   3.90188575
   1093,   6.88982105,    3.9082408
   1094,   7.04924345,   3.92110324
   1095,   7.20558691,   3.92362118
   1096,   7.36586905,   3.91535711
   1097,   7.52857494,   3.91729927
   1098,   7.68734932,   3.92720056
   1099,   7.84168386,   3.92617536
   1100,   7.99943972,   3.91378832
   1101,   8.16373348,   3.90816903
   1102,   8.32599163,   3.91894817
   1103,   8.48353291,    3.9237268
   1104,   8.63984108,   3.92466784
   1105,     8.797575,   3.92153454
   1106,   8.87733459,   3.91847849
   1107,   9.03977871,   3.91060805
   1108,   9.20376778,   3.91598606
   1109,   9.36781597,   3.91449785
   1110,   9.52892208,   3.91992331
   1111,   9.68515301,   3.92843103
   1112,   9.84022713,   3.92272139
   1113,   7.44391012,   2.39955568
   1114,  0.080524683,   3.58033729
   1115,  0.159323364,   3.57468224
   1116,  0.314665854,   3.56561565
   1117,  0.236328632,   3.56844354
   1118,   2.00860786,   3.50996637
   1119,   1.92962217,   3.51548958
   1120,   1.84978545,   3.52540588
   1121,   1.77019739,   3.53547883
   1122,   1.68886852,   3.53594661
   1123,   1.52678704,   3.54602385
   1124,   1.60719466,   3.53760266
   1125,   7.57615519,  0.773888528
   1126,   7.58574533,   1.09721303
   1127,   7.58183622,   1.01463664
   1128,    7.5773797,  0.853593946
   1129,    7.5746851,  0.694962919
   1130,   7.57992411,   1.34447348
   1131,   7.58947086,   1.18107438
   1132,   7.57911158,  0.933673084
   1133,   7.58476114,    1.2632066
   1134,   7.57340956,  0.616666913
   1135,   8.46679497, 0.0788775608
   1136,    8.3074131, 0.0762318745
   1137,   8.14754295, 0.0742379576
   1138,    7.9128418, 0.0639571473
   1139,   8.86623859, 0.0824018717
   1140,   9.18476677, 0.0755491182
   1141,   9.34546947, 0.0794795528
   1142,    9.8388319,  0.079618752
   1143,   9.75819778, 0.0805463269
   1144,   9.67635059,  0.083789058
   1145,   9.59306049,  0.089142479
   1146,   9.42730522,   0.08654131
   1147,   9.10512829,  0.076616168
   1148,   8.94602776, 0.0805327594
   1149,   8.78614044, 0.0828813761
   1150,   8.70609856, 0.0824826658
   1151,   8.54638577, 0.0803900883
   1152,    8.2275629, 0.0751351044
   1153,   7.83403301, 0.0648328215
   1154,   7.75365114, 0.0716301501
   1155,   8.06764793, 0.0719429404
   1156,   7.98918486, 0.0675723851
   1157,   8.62610054, 0.0815109089
   1158,   9.02539062, 0.0782168284
   1159,   9.50901985, 0.0935016796
   1160,   9.26492882, 0.0761612654
   1161,   8.38711739, 0.0773093253
   1162,   3.89569855,   3.36018419
   1163,   4.21699572,    3.3240118
   1164,    4.0547905,   3.34115791
   1165,   4.37805414,   3.29937196
   1166,   7.60531616,    2.2269063
   1167,   7.71333313,  0.338907242
   1168,   5.91372204,      3.09586
   1169,   7.09887457,   2.69182539
   1170,   5.44398975,   3.18264985
   1171,   1.41283154,   3.71003199
   1172,   5.17688036,   3.26705718
   1173,   1.27252519,   3.68685842
   1174,   7.70204544,   1.96327174
   1175,      2.69119,   3.60333371
   1176,   7.52935076,   2.45100713
   1177,   2.89274931,    3.5906558
   1178,   3.45741796,   3.54798532
   1179,   7.27815819,   2.53590035
   1180,   2.46396184,   3.55737042
   1181,   3.98909831,   3.42622685
   1182,   6.56651974,   2.88573527
   1183,   6.43639851,   2.99359941
   1184,   1.45448923,   3.64478183
   1185,    6.7986083,   2.85362148
   1186,   7.64537716,  0.325329989
   1187,    3.8309896,   3.44830561
   1188,    6.9368372,   2.79867172
   1189,   3.91164255,   3.43585277
   1190,   6.29676771,   3.04242635
   1191,   7.64771175,  0.618046582
   1192,   5.58994913,   3.15191698
   1193,   7.44456625,   2.51120663
   1194,   9.83655643,   1.92676938
   1195,   9.85170174,  0.576664031
   1196,   4.14770031,   3.41015005
   1197,   2.08551526,   3.50731373
   1198,   1.61447084,   3.60262752
   1199,   1.69158411,   3.60588241
   1200,   1.78135538,   3.62346792
   1201,   1.86500216,    3.5938046
   1202,   1.94023943,    3.5766511
   1203,   2.01478601,   3.57240486
   1204,   7.65759802,  0.929395318
   1205,   7.66734028,    1.2740283
   1206,   7.67103386, 0.0812326968
   1207,   9.25329113,  0.150374636
   1208,    9.7597971,  0.160765514
   1209,   8.38545418,  0.154801607
   1210,   7.77329588,  0.138282239
   1211,   9.09770489,  0.152024165
   1212,   9.59539413,   0.17781809
   1213,   8.06764698,  0.144902781
   1214,   8.22807217,  0.149826899
   1215,   1.54055905,   3.62021518
   1216,  0.392937213,    3.5656178
   1217,   7.57721949,    1.4248507
   1218,   7.58179045,   1.75334501
   1219,   7.57926035,   1.67040384
   1220,   7.57612085,   1.50652659
   1221,   7.57689142,    1.5883112
   1222,   5.01685286,   3.19706178
   1223,   4.77570057,   3.22416258
   1224,   4.53783703,   3.26618075
   1225,   4.93590784,   3.20679855
   1226,   4.45797586,   3.28267479
   1227,   4.61699724,   3.24996686
   1228,   4.85614681,   3.21504235
   1229,   4.69597292,   3.23564887
   1230, 0.0897533298,    3.7469492
   1231,  0.084158279,   3.66278005
   1232,  0.473721385,   3.56840205
   1233,  0.556934834,   3.57484269
   1234,  0.642921329,   3.58474994
   1235,  0.733044624,   3.58832121
   1236,  0.834294915,   3.59641004
   1237,   0.91784054,   3.56090212
   1238,   4.23155069,   3.40430212
   1239,   7.47407246,   2.45335937
   1240,   7.75070047,  0.225981593
   1241,   7.25432348,   2.66981626
   1242,    2.0885191,    3.5759294
   1243,   7.75266075,   2.01083565
   1244,   6.38967037,   3.07706189
   1245,   7.32905626,   2.60434437
   1246,   1.73942626,   3.69552994
   1247,   7.18799829,      2.63887
   1248,   7.60328054,   2.38856292
   1249,   8.38181591,  0.231934294
   1250,   9.09110355,   0.22572051
   1251,   7.72224951,  0.618737817
   1252,   6.02203226,   3.12193727
   1253,   7.77960062,  0.351134866
   1254,   2.75413728,   3.58832097
   1255,   2.96859908,   3.59804964
   1256,   1.89400744,   3.65403032
   1257,   2.54724336,   3.62212372
   1258,   8.22730255,  0.223056138
   1259,    9.2391243,  0.222585037
   1260,   1.34674025,   3.80385518
   1261,   1.27686381,    3.7481575
   1262,   9.78121376,  0.585206091
   1263,   6.82079792,   2.93296432
   1264,   5.31901598,   3.27661848
   1265,   5.09855938,   3.27109766
   1266,   7.73640108,  0.924602389
   1267,   8.06679726,  0.216985121
   1268,   4.06719542,   3.41726804
   1269,   7.65251017,   2.27288723
   1270,   6.97822905,   2.75251889
   1271,   7.80585527,  0.198414877
   1272,   6.88961506,   2.89362597
   1273,   9.61139965,   0.26022163
   1274,   7.71792984,   2.14280629
   1275,   7.65188456,   1.43114924
   1276,   7.66591406,   1.75260198
   1277,    7.6520009,   1.58971691
   1278,   1.62219882,   3.65379429
   1279,   7.74687147,   1.29869628
   1280,   2.01371408,   3.62891507
   1281,   9.76161385,   0.23980093
   1282,     4.858006,   3.28814507
   1283,   4.93549442,   3.28782368
   1284, 0.0873569101,   3.83087087
   1285,   5.60362673,   3.22752452
   1286,   9.75792599,    1.9398371
   1287,   2.38991237,   3.56315637
   1288,   6.33293486,   3.10723972
   1289,   3.28607512,   3.50504541
   1290,   3.48745012,   3.60344338
   1291,   7.71631861,   2.06257105
   1292,   5.01716566,   3.27890277
   1293,   1.38710654,   3.74884892
   1294,   1.20563912,   3.76516271
   1295,   3.59755254,   3.53567457
   1296,   7.46272135,   2.58967853
   1297,   5.45867729,   3.25771689
   1298,   6.22184181,   3.08091211
   1299,   7.59983683,   2.46420622
   1300,   4.39875507,   3.37681484
   1301,   8.71556473,   3.84746981
   1302,    9.2128706,   3.84047604
   1303,   2.71805882,   3.84214664
   1304,   3.23137474,   3.82939839
   1305,  0.721575677,   3.84412217
   1306,   1.21240008,   3.85679197
   1307,   4.71821451,   3.82191324
   1308,   6.71905041,   3.81712198
   1309,   7.20889378,   3.84887052
   1310,   5.20935869,   3.84825373
   1311,   9.83774948,   3.27850223
   1312,   9.84693623,   2.74466324
   1313,   9.84914589,  0.732822955
   1314,   9.82966995,    1.2252543
   1315,   3.37766957,   3.58694673
   1316,   2.60198736,   3.47410679
   1317,   7.65282154,  0.772002578
   1318,   2.56170392,   3.84389687
   1319,   0.57046479,   3.85274267
   1320,    4.5596652,   3.84494305
   1321,   6.55891609,   3.84352422
   1322,   9.36925697,   3.83150029
   1323,   8.56406116,   3.84820914
   1324,   7.36377144,   3.83084249
   1325,   5.36497927,   3.83086228
   1326,   3.38191009,   3.84583306
   1327,   1.42744982,   3.85508204
   1328,   9.84170437,   3.43593383
   1329,   9.84930992,   1.37738001
   1330,   9.82830524,    2.5689652
   1331,   7.76784945,   2.08130336
   1332,   3.94295311,   3.57949758
   1333,   2.61026883,   3.54308963
   1334,   4.93090963,   3.37918901
   1335,   6.37406778,   3.16714072
   1336,   2.55532908,   3.69457483
   1337,   7.79174089,   1.97344184
   1338,   3.28994179,   3.58416915
   1339,   1.89527583,   3.74794173
   1340,   7.00595045,   2.82334757
   1341,   7.08635521,    2.7710197
   1342,   1.70385504,    3.7553854
   1343,   7.75639439,   2.21153069
   1344,   4.07918596,   3.49191117
   1345,   2.71683884,   3.76403022
   1346,   3.25819921,     3.748106
   1347,   6.69584608,   3.73475885
   1348,   5.21175432,   3.77626824
   1349,   7.21006346,   3.77621675
   1350,   9.78251457,   2.71041775
   1351,   9.75276184,   1.25300622
   1352,   8.71214199,   3.77201104
   1353,   9.77648735,  0.736052871
   1354,   9.77000237,   3.29054594
   1355,   9.22956371,   3.78581285
   1356,   4.69651461,   3.74369335
   1357,  0.720374703,   3.76260018
   1358,   7.62213802,   2.32482243
   1359,   6.45043993,   3.05689478
   1360,   7.65741158,  0.251514673
   1361,   7.73013735,  0.769722104
   1362,   7.70034027,   2.23826957
   1363,   2.55977225,   3.76808834
   1364,   2.62134361,    3.6151371
   1365,   3.39436722,   3.77085209
   1366,   6.55193281,   3.77070117
   1367,   5.41745377,   3.72710919
   1368,    6.7567296,   2.92567968
   1369,   7.41173077,   3.72343516
   1370,   9.75084686,    2.5557785
   1371,   9.77867031,   1.38477898
   1372,   8.56750965,   3.77085066
   1373,   9.76468086,   3.42874336
   1374,   9.42430878,   3.73060942
   1375,   2.82232237,   3.58631587
   1376,   4.55760479,    3.7775166
   1377,   6.06364059,   3.03520083
   1378,   2.88447762,   3.65375423
   1379,   0.57303077,   3.78317547
   1380,   7.78091288,   0.41230312
   1381,   7.72612381,  0.693864763
   1382,   8.30454731,  0.226989552
   1383,   9.16588497,  0.221466333
   1384,   9.77289009,   0.50116986
   1385,   8.14891529,  0.218803167
   1386,   9.34327793,  0.312428981
   1387,   7.74112272,    1.0016619
   1388,   7.97419739,  0.215383142
   1389,   7.52441502,   2.59514642
   1390,   5.68950367,   3.28756046
   1391,   9.69182301,  0.318135113
   1392,   3.43808937,   3.63832927
   1393,   9.83843517,  0.243753895
   1394,   1.10172701,   3.73556471
   1395,   7.73329639,    1.3681041
   1396,   9.77089691,   2.00552106
   1397,   3.66829205,   3.61415267
   1398,   6.28150177,   3.14634347
   1399,   1.53282619,   3.77486134
   1400,   5.53028727,   3.24307251
   1401,   4.78068972,    3.2903595
   1402,   7.39750004,   2.64325833
   1403,   6.87223816,   2.99078345
   1404,   7.74855995,   1.73880959
   1405,   7.72363472,   1.44029677
   1406,   7.72360039,   1.58944643
   1407,   5.09821796,   3.35126162
   1408,  0.187616155,   3.74082899
   1409,   1.40665901,   3.79296875
   1410,    6.4171586,    3.2193768
   1411,   2.87382936,   3.71399474
   1412,   7.46314144,   2.66238379
   1413,   5.24783087,   3.35205412
   1414,   2.24371624,   3.64154434
   1415,   6.10076761,   3.11824012
   1416,   7.74337959,   1.91595531
   1417,   7.78539848,   2.13092804
   1418,   6.95137739,   3.03577375
   1419,     7.787251,   2.27550507
   1420,   6.51456118,   3.05391455
   1421,   4.71685553,   3.36386514
   1422,   7.15016222,   2.78926969
   1423,   7.06624126,    2.8422904
   1424,   7.02688599,   2.76053262
   1425,   2.48195791,   3.77110267
   1426,   7.83990431,   1.94327676
   1427,   5.61571741,    3.3034296
   1428,   4.01819181,    3.5906229
   1429,   6.73317432,   2.87722731
   1430,   1.93272555,   3.69976211
   1431,   1.79546654,   3.74383974
   1432,   1.63239312,   3.77260375
   1433,   2.63820291,   3.76546526
   1434,   3.32525253,    3.7598002
   1435,   6.94236374,   2.95640659
   1436,   6.62314415,   3.75647521
   1437,   7.71401453,  0.474180311
   1438,    5.3486557,   3.75365901
   1439,   7.34436131,   3.75068593
   1440,   9.73262024,   2.62589502
   1441,   9.77047157,   1.31767035
   1442,   8.63963985,   3.77217698
   1443,   9.78293228,   0.66249454
   1444,   9.77310562,   3.35735202
   1445,   9.35424709,   3.75666308
   1446,   4.62496567,   3.76611948
   1447,   3.46621513,   3.77887416
   1448,   7.84972858,  0.417273313
   1449,   6.48205757,   3.77736259
   1450,   3.76355743,   3.54925156
   1451,   3.58855891,   3.61567307
   1452,   5.51843929,   3.73139286
   1453,  0.643914938,   3.76939058
   1454,   7.73332167,  0.847186863
   1455,   7.51474571,   3.73340821
   1456,   9.75782871,   2.48256254
   1457,   9.77677822,   1.45079303
   1458,   8.49420643,   3.76934433
   1459,   5.75370884,   3.19821453
   1460,   9.74918461,   3.50190806
   1461,   9.53191948,   3.73525453
   1462,    7.7969327,  0.619095623
   1463,   4.48963547,   3.77141976
   1464,   5.25019789,   3.26886058
   1465,   0.50001514,   3.78504109
   1466,   9.69747925,  0.536423743
   1467,   9.80367565,  0.435680836
   1468,   8.37632561,  0.308068931
   1469,   9.08652687,  0.295525849
   1470,   8.22473621,  0.294850141
   1471,   8.07483292,  0.284742683
   1472,   7.91872025,  0.172546059
   1473,   9.37734795,  0.246466503
   1474,   9.28600883,  0.299431711
   1475,   7.81754017,   0.91970557
   1476,   7.75007105,    1.0768826
   1477,   9.68486023,   1.96400309
   1478,   9.77452374,   2.06941867
   1479,    9.6291256,  0.337559402
   1480,    7.8282671,   1.32695222
   1481,   5.02727938,    3.4225297
   1482,   7.73371649,   1.66317165
   1483,  0.258028656,   3.84227061
   1484,   7.83728647,   2.10638881
   1485,   3.40990996,   3.69981575
   1486,   4.09440565,   3.56358719
   1487,   9.75835991,  0.313094586
   1488,   6.67016888,   2.91781878
   1489,   9.65304852,   1.90949368
   1490,   7.84967041,   1.26742637
   1491,   9.56751251,  0.365869135
   1492,   8.08315849,   0.34561801
   1493,   7.78923178,   1.58594477
   1494,      7.89923,  0.915058792
   1495,   9.26488972,  0.367604047
   1496,   1.96116841,   3.77742171
   1497,   7.45720863,   2.73656011
   1498,   3.21315622,   3.58551955
   1499,   7.73108578,   2.29122663
   1500,   2.03157473,   3.78903174
   1501,   9.08979988,   0.35186702
   1502,   8.44549274,  0.392386526
   1503,   3.27867508,   3.66543078
   1504,   7.92044973,   1.97645473
   1505,   6.37858295,   3.25849605
   1506,   2.79510522,   3.77091146
   1507,   7.90934467,   2.04432559
   1508,   7.23648834,    2.7388258
   1509,   5.09551191,   3.42743635
   1510,   6.02131987,   3.18690705
   1511,    6.9059062,   3.10110044
   1512,   6.58222628,   3.05982924
   1513,   6.41942215,   3.13415956
   1514,   2.40152383,   3.70282602
   1515,   7.87391901,      0.61789
   1516,   5.76280499,   3.27434993
   1517,   7.91214657,  0.357991874
   1518,   3.53932118,   3.77894902
   1519,   6.73247719,    3.6275599
   1520,   7.71760321,  0.546122491
   1521,   5.26683998,     3.691854
   1522,   7.26684046,   3.71285391
   1523,   9.71434402,   2.68696833
   1524,   9.65537071,   1.22811925
   1525,   8.70883751,   3.69905424
   1526,   9.70756912,   0.73266983
   1527,   9.70925808,   3.29570937
   1528,   6.41289377,   3.77787781
   1529,   6.54042435,   3.70357704
   1530,   9.26311111,   3.69902968
   1531,   5.47229385,   3.67467594
   1532,    5.5775733,   3.76457906
   1533,   7.57272387,   3.76790047
   1534,   7.46951675,    3.6722362
   1535,    9.7578125,   2.40936089
   1536,   9.68056107,   2.54451776
   1537,   9.76632881,   1.51669526
   1538,   9.71354103,   1.39073908
   1539,   8.57192612,   3.69219232
   1540,    8.4203558,   3.76643968
   1541,   9.69369507,   3.41164231
   1542,   9.73788643,   3.58156967
   1543,   9.39321041,   3.67616105
   1544,   9.58630943,    3.7763083
   1545,   4.73311138,   3.64133191
   1546,   7.80831337,  0.767136931
   1547,   9.72883987,  0.440921187
   1548,   9.73748779,    1.8737098
   1549,    9.7130394,   2.07463479
   1550,   9.84050179,   2.07781601
   1551,   4.42016506,    3.7626946
   1552,   4.55518866,   3.72538209
   1553,    4.1151576,   3.62820935
   1554,   9.85539913,  0.423093349
   1555,   7.91141176,  0.298721999
   1556,    8.4594593,  0.236755818
   1557,   9.01580334,  0.233774796
   1558,   7.83328295,   1.06617844
   1559,    9.3898077,  0.337251842
   1560,   9.41007996,  0.171111807
   1561,   9.54058552,  0.288998783
   1562,   7.76721573,   1.23838675
   1563,   4.88601494,   3.46068335
   1564,    7.6700902,   1.09210074
   1565,   7.91961527,  0.124290161
   1566,  0.568538249,   3.72739649
   1567,     0.426909,   3.78185272
   1568,   4.16494083,   3.55255795
   1569,  0.275230199,   3.76861978
   1570,   5.55606222,   3.39932799
   1571,   5.66532946,   3.13696861
   1572,   7.04216814,    2.9094305
   1573,   6.00756311,   3.23068643
   1574,    7.7448616,   2.35162497
   1575,  0.536974847,   3.64896917
   1576,   0.24188292,   3.69120407
   1577,    4.5532012,   3.63498521
   1578,   9.60444641,   3.40590715
   1579,   8.57387447,   3.61346412
   1580,   9.66492653,   1.39360702
   1581,    7.4213438,   3.59143806
   1582,     5.418437,   3.60276365
   1583,   6.56898737,   3.61600351
   1584,  0.721057892,   3.67659426
   1585,   7.94867516,   1.84553874
   1586,   4.69544888,   3.59383082
   1587,   9.27256584,   3.62183785
   1588,   9.64817333,   3.28474212
   1589,   8.76132107,   3.61557174
   1590,     9.617342,   1.30989337
   1591,   9.62920189,   2.68388271
   1592,   7.23023844,   3.63378644
   1593,   5.23582077,   3.61172533
   1594,   6.69786119,   3.57158494
   1595,    6.6010108,   2.97316384
   1596,   7.53325987,   2.75614715
   1597,   9.66034985,   2.03308082
   1598,    7.9068222,     1.364434
   1599,   9.64763451,  0.408183932
   1600,   9.70986652,   1.80616164
   1601,   8.03433037,  0.343686342
   1602,   9.76843548,  0.808395326
   1603,   7.90640831,  0.988504946
   1604,   6.08408833,   3.21422052
   1605,   6.56960058,   3.12518835
   1606,   6.42538548,   3.31160593
   1607,   7.71970558,   1.51450098
   1608,   6.82499838,   3.03964949
   1609,   6.95578051,   3.10133982
   1610,   2.86812711,   3.77573228
   1611,   2.04206586,   3.73215866
   1612,   2.40386987,   3.77397728
   1613,   2.39621329,   3.63312888
   1614,    9.6727066,  0.668277442
   1615,   9.18834114,  0.436652154
   1616,   8.36059475,  0.458157092
   1617,   7.88178539,  0.689764142
   1618,   7.91553879,  0.419664651
   1619,   7.08127689,   2.99198222
   1620,   3.53792596,   3.71128893
   1621,   6.76932573,     3.702703
   1622,   6.41915035,   3.71277165
   1623,   6.40763855,   3.84886932
   1624,   5.14542198,   3.77058434
   1625,   5.56611538,   3.67711782
   1626,    7.1422019,    3.7748456
   1627,   9.72384167,   1.19219339
   1628,   9.75521088,    2.7616384
   1629,    8.7869339,   3.76723409
   1630,   7.56310081,   3.68271017
   1631,   9.70731449,   3.25455165
   1632,   9.67772102,   2.41139555
   1633,    9.6916275,   1.55170178
   1634,   9.83802414,   1.52973151
   1635,   8.42906475,   3.69002342
   1636,   8.41201401,   3.84395981
   1637,   9.76996899,   2.12195945
   1638,   9.82762051,   3.59303021
   1639,   9.65301323,   3.56005549
   1640,   9.58910942,   3.68264341
   1641,    9.8377161,   2.40717435
   1642,   7.54401684,   3.83714318
   1643,   5.54682922,   3.83589602
   1644,    3.5346415,   3.85115576
   1645,   1.93783295,    3.8424468
   1646,  0.416264653,    3.8533411
   1647,   4.40572596,   3.83769131
   1648,   9.54638004,   3.84309983
   1649,   4.77131414,   3.70999432
   1650,    4.4230547,   3.67583728
   1651,   9.43557167,  0.279209793
   1652,   4.23580933,   3.54950809
   1653,   4.97094584,   3.43170238
   1654,  0.368166804,    3.7062149
   1655,  0.796533287,   3.76470971
   1656,   8.93871212,   0.24134104
   1657,   7.10450935,   2.93012309
   1658,   6.60221815,   3.68326807
   1659,   4.28404903,   3.60968423
   1660,   9.74696732,  0.365021229
   1661,   5.07798862,   3.50757408
   1662,   7.79055643,   1.45339358
   1663,     2.100528,   3.78884959
   1664,   8.21895981,  0.366953343
   1665,   9.58867741,  0.438165814
   1666,   7.88818741,  0.763872862
   1667,   2.92444944,   3.77329636
   1668,   9.73412609,   2.19462156
   1669,    2.3255856,   3.77732658
   1670,    7.6783514,   2.41128087
   1671,    2.8761704,   3.84164119
   1672,    5.8357687,   3.26493311
   1673,   5.96286535,   3.24313211
   1674,   7.97741222,   2.02823806
   1675,   2.40421152,   3.84743404
   1676,   6.71992779,   2.96996355
   1677,   7.58045053,   2.72812724
   1678,   7.44560575,    2.8116262
   1679,   6.47281742,   3.63259554
   1680,   5.49563551,   3.56730247
   1681,   6.64830589,   3.08950424
   1682,   7.50970745,   3.56781769
   1683,   6.79930258,   3.11037374
   1684,   7.00946951,   3.03929162
   1685,   6.53330374,   3.18644905
   1686,   7.06491184,   3.04861069
   1687,   6.62914705,   3.56896019
   1688,   5.32672119,   3.59965897
   1689,   7.32945442,   3.57237935
   1690,   9.59450054,   1.39407218
   1691,   8.65297985,   3.60262251
   1692,   9.56252956,   2.63147521
   1693,   9.58476734,   3.33928132
   1694,   9.33724594,   3.61028528
   1695,   9.45595074,   1.91255641
   1696,   9.65502262,   2.07967687
   1697,   4.63525486,   3.60961938
   1698,   7.87302971,   1.41852105
   1699,   7.95145512,   1.29793131
   1700,   7.91617441,    1.0597409
   1701,   7.98182869,  0.910870075
   1702,   9.60109425,  0.664859891
   1703,   7.95379353,  0.614283383
   1704,   9.10345364,   0.51248914
   1705,   8.43699932,  0.468554795
   1706,    6.3423748,   3.77069998
   1707,   9.74202347,   1.58203542
   1708,   8.34664345,   3.76115537
   1709,   9.71950245,   3.67448831
   1710,   7.83930063,   1.57555687
   1711,   4.35986614,   3.76109195
   1712,  0.235484943,   3.63601351
   1713,   4.24013281,   3.48040128
   1714,   9.35754681,  0.377245337
   1715,   9.31217575,  0.433071345
   1716,   5.00834084,   3.55014277
   1717,   4.25136232,   3.67556953
   1718,  0.870802164,   3.76742077
   1719,   4.86452293,   3.73462296
   1720,   9.73252296,   3.14373374
   1721,   8.86262131,   3.75863171
   1722,   9.73076439,    1.0946188
   1723,   6.87812328,   3.71741629
   1724,   9.66921043,   1.74069595
   1725,   9.60961246,   1.49879909
   1726,   8.50418568,   3.61812615
   1727,   9.56284428,   3.49124718
   1728,   4.49458456,   3.56149817
   1729,   2.71934128,    3.6815064
   1730,   3.73041224,   3.61347365
   1731,   7.11576509,   3.06562996
   1732,   4.77886295,   3.48151541
   1733,   7.78266096,  0.298570663
   1734,   4.05765343,   3.69503212
   1735,   6.25640678,   3.29348207
   1736,   9.76241302,   0.88211447
   1737,   5.64550543,   3.44625926
   1738,   4.31724501,   3.39600658
   1739,   7.83025265,   1.71998787
   1740,   7.68931198,   2.30506778
   1741,   7.21827269,   2.81500959
   1742,   4.50372124,   3.42428136
   1743,   8.93789291,  0.323477983
   1744,   5.39576244,   3.34560728
   1745,   6.38510752,   3.35122275
   1746,   6.24126959,   3.19745803
   1747,   2.24675679,   3.71082115
   1748,   3.19752383,   3.73327041
   1749,    9.8075304,   1.76038396
   1750,    5.4789443,   3.41396832
   1751,   5.07344007,   3.76693845
   1752,   7.07371998,   3.77172041
   1753,   9.76692963,   2.84200692
   1754,   9.09527588,   3.71996808
   1755,   8.94134235,   0.16060707
   1756,   7.84704351,   1.13423359
   1757,   1.28584957,   3.80699277
   1758,   7.83358002,   0.24979572
   1759,   3.93993568,   3.63256478
   1760,   4.65059328,   3.38297105
   1761,   1.75195825,   3.77852106
   1762,   4.95584202,   3.49905205
   1763,   7.92580605,  0.481467724
   1764,  0.382195204,   3.63475156
   1765,   9.62652016,   3.80791378
   1766,   9.75384235,   2.33542633
   1767,   7.63703728,    3.7791791
   1768,   5.64362955,   3.77613401
   1769,   7.43475676,   2.88811231
   1770,   3.87378883,   3.58818793
   1771,   3.91047239,   3.70201373
   1772,   6.74042416,   3.06905937
   1773,    9.4224081,   3.60996985
   1774,   9.61033154,  0.506563246
   1775,   9.60072136,   2.58139491
   1776,   8.03711414,   2.04165101
   1777,   6.75573063,   3.17264915
   1778,   3.68072915,   3.69109201
   1779,    2.3199842,   3.63764477
   1780,   7.75187826,   2.42002296
   1781,   4.27613735,    3.7406714
   1782,   9.67793179,   3.78854609
   1783,    8.2738266,   3.75174189
   1784,   9.74431419,   1.69065833
   1785,   9.74683189,   2.26245451
   1786,   7.70172882,   3.78614402
   1787,   5.70867634,   3.78672767
   1788,    6.2720685,   3.75623608
   1789,    2.1726234,   3.78495002
   1790,   4.71431446,   3.53146148
   1791,   6.05388594,   3.29668665
   1792,   7.30468941,   2.76395941
   1793,   7.58309221,   2.67376184
   1794,   7.37398195,   2.78777194
   1795,   5.38702297,   3.66983581
   1796,   7.37931204,   3.65999198
   1797,   8.14769936,  0.355733871
   1798,   7.89388514,   0.83957237
   1799,   6.21003342,   3.25225592
   1800,   9.82932472,   2.24908113
   1801,   6.54042196,      3.26352
   1802,   6.42314339,   3.66105723
   1803,   6.55870581,   3.51324224
   1804,   5.58456516,   3.59040165
   1805,   5.40730095,   3.50900483
   1806,   7.57843494,   3.61392689
   1807,    7.4244194,   3.49282575
   1808,   6.73086357,   3.51972675
   1809,   7.24382067,   3.55543852
   1810,   5.24490309,    3.5173955
   1811,   9.52424431,   1.28706205
   1812,   9.55641174,   2.73396993
   1813,   8.72546101,   3.53741121
   1814,   9.58029652,   3.27391291
   1815,   7.19632578,   2.89007187
   1816,    9.5455246,  0.709355116
   1817,   7.94009495,   1.20677078
   1818,   7.96850681,   1.42440867
   1819,   7.92515421,   1.46342266
   1820,    7.9985795,   1.05461407
   1821,   1.75722253,   3.83631277
   1822,   3.05574822,   3.82744575
   1823,   5.02544117,   3.63116097
   1824,    7.1591773,    3.0978229
   1825,   6.25477314,   3.38931584
   1826,   5.40126181,   3.42535901
   1827,   9.58959675,    1.7818532
   1828,   9.64131927,   1.57558644
   1829,   8.43758202,   3.61722374
   1830,    8.5645113,   3.54013801
   1831,   9.54034519,   3.42140985
   1832,   7.76939297,    1.8129977
   1833,   6.34076405,   3.38523197
   1834,   5.70046759,   3.35980153
   1835,   4.46927786,   3.60856533
   1836,   4.55169487,    3.5574615
   1837,   8.04131031,   1.27449799
   1838,   4.60421419,   3.47262287
   1839,   5.57492924,   3.48476696
   1840,   8.85864735,  0.246030927
   1841,   8.93731785,  0.409199208
   1842,   4.42522717,   3.44990277
   1843,   8.10387325,  0.504253626
   1844,    4.5788331,   3.40311718
   1845,   9.38022423,   1.93404698
   1846,   9.36998844,  0.417231828
   1847,   3.05559254,   3.70516706
   1848,   8.06302166,  0.907600105
   1849,   4.90178585,   3.57286167
   1850,   9.59891796,   2.06988835
   1851,   2.24802279,   3.78108978
   1852,   9.24874115,  0.509527266
   1853,    7.9095211,   1.70052564
   1854,   9.10631466,  0.594844222
   1855,   8.42597198,  0.543914974
   1856,   6.47536278,    3.3636961
   1857,   2.99497771,   3.74706721
   1858,   4.96486759,   3.60786891
   1859,   6.91943502,   3.67357469
   1860,   7.02286243,   3.69787073
   1861,   9.68273354,    1.0181427
   1862,   9.65401554,   2.95082593
   1863,   8.92508507,   3.66364431
   1864,   9.66812706,   3.09878397
   1865,   9.07908154,   3.63706636
   1866,   4.93808603,   3.67569494
   1867,  0.918284357,   3.67041111
   1868,   4.13571835,   3.76734591
   1869,   3.99030924,   3.76693153
   1870,   9.68331623,   0.87755692
   1871,   9.84071827,  0.884337962
   1872,    6.9071722,   3.82206535
   1873,   7.06081009,   3.84509611
   1874,   5.06010103,   3.84293199
   1875,   9.82615471,   1.04410303
   1876,   9.80382252,   2.89992166
   1877,   8.87172508,   3.83816338
   1878,   9.76094437,   3.10054016
   1879,   9.03517437,   3.82205868
   1880,   4.90193844,   3.82471466
   1881,   9.66769123,   2.27225971
   1882,   6.08138943,   3.36638165
   1883,   6.77658844,   3.00573206
   1884,   7.58954525,   2.60688186
   1885,   7.50523663,   2.91391921
   1886,   8.04236126,   1.97427893
   1887,   2.93861079,   3.72518086
   1888,   6.85857344,   3.25356054
   1889,   9.44631386,  0.440041989
   1890,   9.59765339,   2.48526788
   1891,   7.62701702,   2.75232863
   1892,   9.39929676,  0.540235639
   1893,   9.50147343,    3.5751977
   1894,    2.3233552,   3.70730138
   1895,   3.61172414,   3.77462506
   1896,   6.56640625,   3.16755509
   1897,   7.29860306,   2.99085736
   1898,   6.25436068,   3.83380747
   1899,   5.66036701,   3.69575095
   1900,   7.64975548,   3.70336342
   1901,   8.25676441,   3.83123899
   1902,   9.83026314,   3.75899005
   1903,   4.22648573,    3.8349297
   1904,   7.97059441,  0.759770632
   1905,    8.2850008,  0.448492825
   1906,   6.42802668,   3.41969895
   1907,   5.55218315,    3.5487411
   1908,    7.9571538,   1.52661037
   1909,   7.15548229,   3.62426472
   1910,   5.13714743,   3.63520813
   1911,   9.60404682,   2.80444241
   1912,   7.81806612,   2.41205645
   1913,   9.21218491,   3.61859083
   1914,    9.5983839,  0.784445941
   1915,   5.32393026,   3.43199968
   1916,    9.5385313,   1.88645113
   1917,   5.08493757,   3.63616681
   1918,   8.08022594,   1.35193288
   1919,   3.09472823,   3.67996788
   1920,   7.88985634,   1.61692643
   1921,    9.3915329,   1.99525285
   1922,   9.03154469,  0.405405462
   1923,   2.24721861,    3.8521297
   1924,   8.52384281,  0.399698615
   1925,   8.07161808,  0.979533017
   1926,   6.53420305,   3.40817356
   1927,   4.55647278,   3.33479309
   1928,   9.17863178,  0.596931279
   1929,   8.33658028,  0.597897351
   1930,   8.08236599,   1.04951012
   1931,   9.65480709,   2.14070892
   1932,   6.93858957,   3.74860764
   1933,   6.90692711,   3.62629461
   1934,   7.76316071,   2.50556707
   1935,   7.00498724,   3.76488948
   1936,    7.0852685,   3.62781453
   1937,   9.64124107,   1.08928609
   1938,   9.75175095,   1.02815092
   1939,   9.73096561,   2.96925712
   1940,   9.60157394,   2.87332606
   1941,    8.9048357,    3.5812552
   1942,   8.94056511,   3.74757266
   1943,   4.06203127,   3.76890063
   1944,   9.72517776,   3.04085445
   1945,   9.62335014,   3.15239239
   1946,   9.01939297,   3.73531318
   1947,   9.14815521,   3.55401421
   1948,    4.9248395,    3.7488215
   1949,   8.85046864,  0.409974575
   1950,   9.75884056,  0.955944657
   1951,   9.60533619,  0.876466393
   1952,   4.99795198,   3.76073527
   1953,   9.46729279,    2.0554049
   1954,   4.46308804,   3.51421571
   1955,  0.942009032,   3.75770402
   1956,   8.06898117,   1.45534194
   1957,   5.71280241,   3.42737293
   1958,   8.44534969,   3.55019951
   1959,   9.53775692,   1.54356825
   1960,   9.62410641,   1.67678928
   1961,   8.77759361,  0.247923896
   1962,   6.45696878,   3.52797508
   1963,   5.77198172,   3.79721975
   1964,   7.77002001,   3.78499126
   1965,    5.7013855,   3.62504673
   1966,   7.68654156,   3.65298557
   1967,   7.70765448,    2.7211833
   1968,   7.80639315,   2.34282255
   1969,   9.55222416,   1.71595156
   1970,    5.7771287,   3.41651511
   1971,   6.04810762,   3.42941928
   1972,   6.09404278,   3.29621983
   1973,   5.71894741,   3.55956578
   1974,   7.59562492,   2.53734183
   1975,   8.03820133,   1.90543365
   1976,   8.10779476,   2.05493379
   1977,   9.57947826,   1.61112738
   1978,   8.37177086,   3.60814571
   1979,   8.92288685,  0.495395005
   1980,   8.76681423,  0.410439104
   1981,   9.47110558,   1.58370638
   1982,   8.44550228,   3.48833108
   1983,   7.42493534,   2.96139503
   1984,   7.58011961,    2.8622365
   1985,   4.40815067,   3.55675864
   1986,    6.8860693,   3.20153666
   1987,   7.65733099,     2.627074
   1988,   7.22317934,   2.99149776
   1989,   7.24059248,   3.08850384
   1990,   3.13753462,   3.59323001
   1991,   6.36364031,   3.55416489
   1992,   3.68661141,   3.76968765
   1993,   9.59784031,   2.41381431
   1994,   9.51232433,   2.58327603
   1995,    9.3269453,  0.569206238
   1996,   9.40190125,   3.51836562
   1997,   9.58196831,   3.60503316
   1998,    6.5694828,    3.3489635
   1999,   8.12056541,    1.2577213
   2000,   9.32164669,   1.95535791
   2001,   4.06940269,   3.84537458
   2002,   8.14071274,  0.904613078
   2003,    8.6105957,  0.325581074
   2004,   9.09953499,  0.672051132
   2005,   8.41049862,  0.616661727
   2006,   8.27534866,  0.517794967
   2007,   7.59826708,   3.48988438
   2008,    6.8054595,   3.57139993
   2009,   7.03184509,   3.64454889
   2010,   9.62287045,    1.1734463
   2011,   9.57096481,   2.97342372
   2012,   8.82910061,    3.5993979
   2013,   9.59031677,   3.21014667
   2014,   9.07616711,   3.55748725
   2015,   9.61021805,  0.955512106
   2016,   7.88493872,   2.40475702
   2017,  0.875449598,   3.84170246
   2018,   1.02082038,   3.75038958
   2019,   3.91661835,   3.77124572
   2020,   9.59906673,   3.05802917
   2021,   8.98961449,    3.5517962
   2022,   9.61832142,   1.02611542
   2023,   6.98694372,    3.6125493
   2024,   9.58968735,   2.20842838
   2025,   6.63491058,   3.23107314
   2026,   9.74786377,   3.76712251
   2027,   4.20789051,   3.75932527
   2028,   8.19996357,   3.73430777
   2029,   6.20094252,   3.73402333
   2030,   3.05555177,   3.75757742
   2031,    3.0532372,   3.61313677
   2032,   7.98518181,   1.69064867
   2033,   9.46894073,   3.43298221
   2034,   8.55289459,   3.46755171
   2035,   9.44327354,   1.41689706
   2036,   6.59716988,   3.44895267
   2037,   8.77280426,  0.329114079
   2038,   6.29883575,   3.43243051
   2039,   4.78699827,   3.59138203
   2040,   7.28914022,    2.8427422
   2041,   9.50506306,   3.27293897
   2042,   8.72297478,    3.4457562
   2043,   9.42416191,   1.25114012
   2044,   8.11087036,   1.51699555
   2045,   9.50599003,  0.402582854
   2046,   5.24712467,   3.43379521
   2047,   6.76301908,   3.45099187
   2048,   5.92379713,   3.33951354
   2049,   3.83905196,   3.77165866
   2050,   8.78178692,  0.165315434
   2051,   8.16623688,   1.04307067
   2052,   8.50455761,  0.558121085
   2053,   9.04022694,  0.599070728
   2054,   9.39284515,    2.0616858
   2055,   8.03738117,  0.604790866
   2056,   8.13512421,  0.831985414
   2057,    9.4318285,    1.8484652
   2058,   8.05122566,   1.55285645
   2059,    7.2021842,   3.14129877
   2060,   8.10531235,   1.18779731
   2061,   8.29243279,   3.67365026
   2062,   6.29667521,   3.68247795
   2063,   6.27191305,   3.58597255
   2064,    8.2470808,   3.60361671
   2065,   7.85648012,   2.25992322
   2066,   9.75971508,   3.84893203
   2067,   8.12757301,   3.70245171
   2068,   6.13223267,   3.70126843
   2069,   8.11899471,  0.588457346
   2070,   8.18890095,   2.06582856
   2071,   6.90667725,   3.50005007
   2072,    7.7244668,   2.65368152
   2073,   9.54681873,   1.04617488
   2074,   8.94109726,   3.47689724
   2075,    9.5508461,   3.11342001
   2076,   8.11643028,   1.90435672
   2077,   7.96616268,   1.90986156
   2078,   8.09328365,    2.1272161
   2079,   5.65412188,   3.60546374
   2080,   7.66575289,   3.59287715
   2081,   6.10532141,   3.46660948
   2082,   7.94857883,   2.32705474
   2083,   7.92896652,   1.77592659
   2084,   7.60048485,   2.80213857
   2085,   6.90377855,   3.15292597
   2086,   6.71683645,    3.2343564
   2087,   9.42778969,   1.51924527
   2088,   8.48305798,   3.40816069
   2089,   8.05295563,   1.68594599
   2090,   3.76270604,    3.7673378
   2091,   9.31869888,   2.06800532
   2092,   9.51899624,    2.4118042
   2093,   8.24946594,   1.03044629
   2094,   9.41845512,  0.611109436
   2095,   7.51351547,   3.40033388
   2096,   9.57535934,   3.55568624
   2097,   6.25761557,   3.48739982
   2098,   8.19864941,  0.630613804
   2099,   8.53774929,  0.241325572
   2100,   3.91845441,   3.84698153
   2101,   6.20563173,   3.44366908
   2102,   5.90169907,   3.41336989
   2103,   8.12763309,   1.42230058
   2104,   6.69603395,   3.41436982
   2105,    9.3986969,   1.35175669
   2106,   8.66237545,   3.44221711
   2107,   9.45443344,   3.36002994
   2108,   7.84362698,   3.76312661
   2109,   5.86521196,   3.72451472
   2110,   9.45932102,   2.13182926
   2111,   8.69688892,  0.247164652
   2112,   8.09358501,   1.11824703
   2113,    9.4425354,   1.68691969
   2114,   8.89898872,  0.571150959
   2115,   5.84346485,     3.474123
   2116,   4.30651951,   3.56275821
   2117,    8.0916605,   1.60629082
   2118,    8.9572506,  0.587878883
   2119,   9.40352821,   1.78591347
   2120,   9.39554787,   3.43884611
   2121,   6.63260508,   3.37924099
   2122,    7.5728507,   2.93313026
   2123,   6.92015219,   3.28235269
   2124,   8.68432713,  0.409069359
   2125,   5.17101336,   3.43171692
   2126,   9.39719391,     1.177616
   2127,   8.30331326,   3.58595157
   2128,   8.78681469,   3.44648886
   2129,   9.40514565,   3.22061944
   2130,   7.75373459,   3.60161352
   2131,   5.79884815,   3.57236433
   2132,   9.25195122,  0.589058161
   2133,   5.89960003,   3.18148899
   2134,   8.38853931,  0.684186399
   2135,   6.70537376,   2.81822205
   2136,   2.09441924,   3.85604048
   2137,   8.20547009,   3.56338429
   2138,     6.945014,   3.22349143
   2139,   8.19333363,  0.576764941
   2140,   8.61696625,  0.244555995
   2141,   6.89021158,   3.34469581
   2142,    7.3538599,   2.93766403
   2143,   7.63890123,   2.88372183
   2144,   8.22731209,  0.704418063
   2145,   9.40004826,   3.37712789
   2146,   7.58152008,   3.02174067
   2147,   8.11585236,   1.82047963
   2148,   6.23522043,   3.65635443
   2149,   9.37165165,   1.72234523
   2150,   8.19298935,   1.98944402
   2151,   8.22760105,    3.6603756
   2152,   7.95202446,    2.4034493
   2153,   7.79144812,   2.68381739
   2154,   6.07913589,   3.79407835
   2155,   8.07747459,   3.79533195
   2156,   7.16643095,   2.95649695
   2157,   6.14983225,   3.38713431
   2158,   5.64116335,   3.54674959
   2159,   7.58785868,   3.56381726
   2160,   6.31008339,   3.52378917
   2161,   9.36312771,   1.55736935
   2162,   8.39619827,   3.37676716
   2163,   9.24892044,   2.00215077
   2164,   7.61756039,   3.39244127
   2165,   7.42681789,   3.40631413
   2166,   8.22834778,  0.964826286
   2167,   7.18811035,   3.25237751
   2168,   9.48652077,  0.574614286
   2169,   5.95637035,   3.44592595
   2170,   8.60347748,  0.405170619
   2171,   8.14791775,   1.57481575
   2172,    5.9124918,   3.68825436
   2173,   9.44153309,   2.41522336
   2174,   7.89962339,   3.70181537
   2175,   5.91937637,   3.49707913
   2176,   8.82922173,  0.572885334
   2177,    9.2617588,  0.678027928
   2178,   8.93145657,  0.649661839
   2179,   9.30087948,    1.7555939
   2180,   6.79475021,    3.3802278
   2181,   9.35358238,   1.27987874
   2182,    8.7129364,   3.36873198
   2183,   9.43022537,   3.29373908
   2184,   8.75876141,  0.491642535
   2185,   5.86796713,   3.53507352
   2186,   7.84171867,   3.62706757
   2187,   8.05069351,  0.680087507
   2188,   9.48673344,   3.05970573
   2189,   8.90815258,   3.41265011
   2190,   9.46971226,   1.03389454
   2191,   6.92848301,   3.43517661
   2192,   9.38209248,    2.2042563
   2193,   8.46396732,  0.714661121
   2194,   8.36071491,  0.743978262
   2195,   8.02627277,   1.83543646
   2196,   6.21628094,    3.5512886
   2197,   9.44515991,  0.680212319
   2198,   8.18352795,   1.38994765
   2199,   8.07162094,   2.19883299
   2200,   5.89500523,   3.78270936
   2201,   8.19648266,    1.9119277
   2202,    7.7402792,   2.58242917
   2203,   7.90428352,   3.79034281
   2204,   5.84221649,   3.33952928
   2205,   9.24449825,   2.13636732
   2206,   8.27660942,    1.1027844
   2207,   7.86102915,   2.71183538
   2208,   8.13638306,   0.75635469
   2209,   8.58488178,  0.569257319
   2210,   8.21054554,  0.766700208
   2211,   8.57103825,  0.657526016
   2212,   8.11632252,   1.72793233
   2213,   7.27178955,   2.92823219
   2214,   8.28699684,   2.07542133
   2215,   7.47922468,   3.06169105
   2216,   7.77468348,   2.75390553
   2217,    7.8314662,    2.4779501
   2218,   8.54282379,  0.160907671
   2219,   7.09121513,   3.20772243
   2220,   6.01716185,   3.71229386
   2221,   8.01193237,   3.71585321
   2222,   9.16411114,   2.07924557
   2223,   9.26852322,    1.9211874
   2224,   9.40376282,   1.62178493
   2225,   8.37902641,   3.46660972
   2226,   8.21262646,  0.899886131
   2227,    9.4479208,   2.47851086
   2228,   7.88287401,   2.16476822
   2229,   9.23092937,   1.78415024
   2230,   8.88956165,  0.629308581
   2231,   8.96614265,  0.724233568
   2232,   7.01731014,   3.39668107
   2233,   9.30341434,   2.27200365
   2234,   9.47591496,  0.967915893
   2235,   8.96212864,   3.37535024
   2236,   9.43010235,   2.99442792
   2237,   8.04376698,   2.26773071
   2238,   8.42311096,  0.777500749
   2239,   6.11706018,   3.58070469
   2240,   7.90972042,    3.6107707
   2241,   9.37048721,  0.723286033
   2242,   8.26985836,   3.43536139
   2243,   5.91182518,   3.58914614
   2244,   8.21058655,   3.44078064
   2245,   8.02090359,   2.41120887
   2246,   5.95610571,   3.75360441
   2247,   9.24376202,   2.20012498
   2248,   8.35669613,   1.06210136
   2249,    8.1982193,   1.24875987
   2250,   7.95223904,   3.75864601
   2251,   8.75048542,  0.575613976
   2252,   7.02200937,   3.24130368
   2253,    7.4207983,   3.32300186
   2254,   9.38332844,   1.45490432
   2255,   8.22033596,   1.35975385
   2256,   9.26934338,   1.69231141
   2257,   9.42942142,   3.10874271
   2258,   8.87917805,   3.35555768
   2259,   9.39316177,   1.10052705
   2260,   9.23008442,   2.26536441
   2261,   7.20963907,   3.36974382
   2262,   7.99999285,   3.59699082
   2263,   6.01386309,   3.59510064
   2264,   8.12480164,   1.67055237
   2265,   8.74446487,  0.663384318
   2266,   8.24662018,   3.35320139
   2267,   7.09783125,   3.10222268
   2268,   7.94747066,   2.67023921
   2269,   7.34917021,   3.40775156
   2270,   8.05430031,  0.755999923
   2271,    8.2757349,  0.777988434
   2272,   7.40912533,   3.24608755
   2273,   8.25575256,   2.14981556
   2274,   8.12455845,   2.29730582
   2275,   7.55219793,   3.09650016
   2276,    7.4108243,   3.03081703
   2277,   7.25181198,   3.30101848
   2278,   8.10287857,   2.36322832
   2279,   9.17137814,   1.93195307
   2280,   9.24884415,   1.84892213
   2281,   9.46366119,   2.61918092
   2282,   9.36718178,   2.41931939
   2283,   9.02417374,  0.726734817
   2284,    8.9040451,  0.706908762
   2285,   7.07479382,   3.47039485
   2286,    9.3754158,   2.27553058
   2287,    9.4023695,   1.02747858
   2288,   9.47192574,  0.903092444
   2289,   9.08524418,   3.47940588
   2290,    8.9224329,   3.32394624
   2291,   9.37200642,    3.0379436
   2292,   5.96310663,   3.54299951
   2293,   7.93190145,   3.55017972
   2294,   9.41013241,  0.786397696
   2295,   8.14573574,    3.3864224
   2296,    7.0491128,   3.34296012
   2297,   8.27404118,   1.37644529
   2298,   8.20984745,   1.31073689
   2299,   8.66715717,  0.574586451
   2300,   9.23168468,   1.63179839
   2301,   8.54230499,   3.30789518
   2302,   9.27746677,   1.42973769
   2303,   9.32056618,   1.09382594
   2304,   8.88562679,   3.28138328
   2305,   9.31023884,   3.08465314
   2306,   9.46116352,   1.09848082
   2307,   8.84988499,   3.43544245
   2308,   7.75256872,   2.82121134
   2309,   7.08579588,    3.2929647
   2310,   8.27803326,  0.889769137
   2311,    8.5501318,  0.759921134
   2312,   7.91258287,   3.84942436
   2313,    8.2533884,   2.21383548
   2314,   9.08925629,   1.94123054
   2315,   8.36817646,   0.91502744
   2316,   9.15415001,   2.24598765
   2317,   7.06187248,   3.55112743
   2318,   7.16345787,   3.45106649
   2319,   9.53437042,   0.88847059
   2320,   8.59519863,  0.485886842
   2321,    6.0704751,   3.65014839
   2322,   8.06219673,   3.65069985
   2323,   7.89168644,   2.59113622
   2324,   7.99935007,   2.75587463
   2325,   9.29697704,   2.34153557
   2326,   8.16670609,   2.22731566
   2327,   8.15777779,   2.45201159
   2328,   7.38617945,   3.09919953
   2329,    7.4815135,   3.23020816
   2330,    7.6593709,   3.08016324
   2331,   8.29532719,  0.721771836
   2332,   7.10908461,    3.3838737
   2333,   9.44653511,   2.27764821
   2334,   9.41530132,  0.963624895
   2335,   9.07612801,   3.38419127
   2336,   9.38268661,   2.92135429
   2337,   8.08959389,   3.45271134
   2338,    9.4800787,  0.746749103
   2339,   9.21155262,   1.47005522
   2340,   8.48525047,   3.23944783
   2341,   7.82748461,     2.868644
   2342,   9.21618366,   1.14268041
   2343,   8.84920216,   3.25128627
   2344,    9.2451334,   3.12648892
   2345,   8.58180714,  0.855186522
   2346,   8.73604584,  0.749024391
   2347,   8.64968014,  0.750950873
   2348,   9.16428089,   1.86461473
   2349,   7.68575859,   3.01593637
   2350,   7.32639694,   3.06777501
   2351,   7.40423918,   3.18411708
   2352,   9.08541012,   2.01148534
   2353,    8.4229641,   0.96969384
   2354,   7.25599861,   3.47456741
   2355,    7.8281641,    2.5623343
   2356,    8.1057272,   3.57928324
   2357,   7.58174896,   3.29270792
   2358,   7.76729631,   2.94264889
   2359,    7.9107523,   2.87193179
   2360,   9.25524712,   1.53245509
   2361,   9.17230701,   1.40953326
   2362,   8.58931351,   3.22941756
   2363,   8.42835045,   3.28542304
   2364,   9.24973679,   1.06820953
   2365,   8.01586342,   3.38183784
   2366,   8.95844555,   3.28017664
   2367,   8.77009678,    3.3175528
   2368,   9.51900578,   2.27843833
   2369,   9.27863979,    3.2154038
   2370,   9.25767422,   3.01347136
   2371,   8.51081848,  0.891698301
   2372,   8.22285748,   2.29121733
   2373,   9.42020512,    2.5636189
   2374,   9.12499332,  0.745219648
   2375,   8.27496719,   1.24938214
   2376,   9.28428078,  0.780430615
   2377,    7.9449563,   2.23819304
   2378,   8.17332935,   1.70862997
   2379,   9.18977356,   1.57193732
   2380,   8.73313618,  0.828360021
   2381,   8.32414627,   2.22057533
   2382,   8.23458576,   2.35983324
   2383,   8.35358715,   1.25271356
   2384,   9.40808678,   2.65163946
   2385,    9.1302433,  0.797823846
   2386,   9.32077789,   2.58825779
   2387,   9.19774437,  0.786045909
   2388,   7.91739178,   2.80263424
   2389,    8.9988184,   1.90521002
   2390,   9.08129597,   2.09007263
   2391,   8.41825581,  0.869904697
   2392,   8.43315411,    1.0401262
   2393,   7.55302811,   3.20837235
   2394,    9.5926199,   2.27714753
   2395,   9.24794579,  0.882650495
   2396,   8.72013664,    3.2992332
   2397,   8.04162884,   3.52535939
   2398,   8.60586452,  0.931853831
   2399,   8.23282146,   1.69455957
   2400,   8.34015083,   1.18854475
   2401,    8.4362421,   3.19570923
   2402,   7.85861731,   2.93151307
   2403,   8.28411674,   3.28294706
   2404,    9.5958271,   2.34547567
   2405,   7.90896416,   2.93873644
   2406,   7.89412308,    3.0032196
   2407,   8.40745735,   3.24038982
   2408,   8.46576214,   3.12419295
   2409,   8.81311035,  0.756671727
   2410,   8.44355106,   1.32944262
   2411,   8.23737717,   1.60112953
   2412,   8.30224895,    1.7786839
   2413,   9.28665447,   2.48135328
   2414,   8.49728012,   1.03627896
   2415,   8.37967205,  0.828508973
   2416,   9.30595589,  0.912037551
   2417,    8.6576128,    3.2708683
   2418,   9.23513126,   1.25726902
   2419,   9.26186371,   3.31747389
   2420,   8.99679565,   2.08749223
   2421,   5.91233301,   3.84905553
   2422,   8.26686764,  0.834017336
   2423,    8.2476263,   1.44439125
   2424,   7.96032906,   2.60796285
   2425,   8.28360271,    1.8476212
   2426,   7.99091959,   2.16868949
   2427,   8.41667271,   2.27626109
   2428,   9.12650108,  0.859367311
   2429,   8.27277756,   1.91766727
   2430,   9.37709999,   2.74259901
   2431,   9.57236481,  0.604320645
   2432,   7.75906658,    3.5307436
   2433,   9.12383556,   2.33261728
   2434,   9.29490852,   2.41194296
   2435,   9.08256912,   2.18755555
   2436,   8.30497742,   2.39980626
   2437,   8.07924557,   2.48853469
   2438,   9.15921497,  0.941082954
   2439,   7.71858263,   2.87326002
   2440,    9.2060585,   1.72324395
   2441,   9.44787884,  0.844107687
   2442,   6.70565605,   3.13003516
   2443,   6.95472813,   3.37123084
   2444,    8.1426754,    3.2642169
   2445,   8.02236652,   2.54554248
   2446,   7.90049076,     2.534096
   2447,   8.38522625,    1.1166904
   2448,   8.92173576,   2.08426619
   2449,   8.52981663,   1.09784544
   2450,   8.20783615,   1.54345024
   2451,   8.18634796,   3.22535896
   2452,    8.3140974,   2.16843987
   2453,   9.19140625,   3.22200394
   2454,   8.75200844,   3.23032904
   2455,   7.82027578,    3.0573163
   2456,   8.51791096,   3.07234716
   2457,   8.44799232,   1.24351871
   2458,   8.34973049,   1.38707781
   2459,   9.23347187,   1.36796606
   2460,   9.25739193,   2.53694153
   2461,   8.43469906,    2.3476584
   2462,   8.34179115,   1.92018259
   2463,   8.36618805,   2.37024856
   2464,   8.23650169,   2.40804338
   2465,   9.03871155,   2.27983499
   2466,   7.80096245,   3.44815469
   2467,   9.21737766,  0.964218199
   2468,   9.10200882,    1.7205081
   2469,   8.73422623,  0.899173558
   2470,   8.15847874,   1.75727034
   2471,   8.29842377,   1.58248258
   2472,    9.3057785,   2.76911759
   2473,   8.39899445,   2.20487642
   2474,   9.48493862,   2.77242208
   2475,   8.95901394,  0.800540924
   2476,   9.22278881,   2.40651894
   2477,   9.46144581,   2.88442326
   2478,   9.16458416,   3.39418197
   2479,   8.03618622,   2.90110159
   2480,   3.20804143,   3.51136374
   2481,    9.0888834,   1.43748581
   2482,   9.10785103,   3.29302716
   2483,   8.40753269,   1.17596245
   2484,   9.41405106,   2.81208944
   2485,   9.24589825,   3.40743089
   2486,   8.14133739,   2.51405501
   2487,   7.89459276,    2.4717319
   2488,    8.9119997,   2.02393603
   2489,   8.58527184,   1.04002321
   2490,   8.06146622,   3.26964355
   2491,   7.88182926,   3.07289791
   2492,   8.44145393,   1.41238546
   2493,   8.43265915,   3.05181837
   2494,   9.25485992,   2.62652373
   2495,   9.32376957,   3.42665982
   2496,   8.50035763,   2.26836276
   2497,   8.23434258,   2.47420502
   2498,   9.15669441,   1.74919581
   2499,   9.06268597,   1.65693998
   2500,   7.84341621,   3.41108108
   2501,   7.75566626,   3.47505307
   2502,   8.31878567,   1.64451158
   2503,   9.01064682,   0.84985888
   2504,   8.42334366,   2.09891057
   2505,     9.209342,    2.7102232
   2506,   8.44614029,   2.40186024
   2507,   9.05700016,   2.40175128
   2508,   8.08981323,   2.85227919
   2509,   8.85696697,  0.921843171
   2510,   9.02957058,   1.50111616
   2511,   9.04310799,   3.26339173
   2512,    8.9513483,   2.24418592
   2513,   8.10945225,   2.57348061
   2514,   8.09884644,   3.19075918
   2515,    9.0287199,   1.74172521
   2516,   7.75340557,   3.38830757
   2517,   9.07243824,   1.86761105
   2518,    8.0111475,   3.17556047
   2519,    7.7004323,   3.44295359
   2520,    8.2151432,   2.54449821
   2521,   8.50442505,   2.42336941
   2522,    8.2985096,   2.56941319
   2523,   8.53644657,    1.4068315
   2524,   8.46564579,   1.84438086
   2525,   9.10571384,   2.44028997
   2526,   8.94880199,    2.4148438
   2527,   8.63646793,   1.08940458
   2528,   8.86967468,   2.07899952
   2529,   8.94281673,   1.94096684
   2530,   7.99509382,   3.05299377
   2531,   8.37321472,   3.08227038
   2532,   8.41392326,   1.54850924
   2533,   9.12271404,   3.21746945
   2534,   9.24911499,   2.88096189
   2535,   8.37078285,   2.03908348
   2536,   9.08021259,  0.851518035
   2537,   8.40173912,   2.43695116
   2538,   8.06343365,   2.78216505
   2539,   8.09222889,   2.90663362
   2540,   9.23099327,   2.78702569
   2541,   9.00441074,   1.40107751
   2542,   9.08079147,     1.555843
   2543,   8.79617214,  0.906853557
   2544,   8.05872059,   3.03278089
   2545,   8.73205376,  0.960749447
   2546,   9.10402584,  0.917662919
   2547,   8.24723816,   3.07591057
   2548,   7.93510056,   3.27346301
   2549,   8.59080601,   2.35809708
   2550,   8.37436962,   2.60534906
   2551,   8.38439083,   1.79526782
   2552,   8.58341026,   1.33885586
   2553,    8.9218874,   2.31548548
   2554,   8.39359188,    1.6302793
   2555,   8.90180969,   1.88719451
   2556,    8.9033432,   2.14681888
   2557,   8.02802658,   2.98285961
   2558,   8.41313648,   2.54195213
   2559,   7.75642443,   3.28058505
   2560,   8.93949318,   1.72561395
   2561,   8.20605755,   2.89980364
   2562,   8.09669304,    3.0964365
   2563,   8.11443424,   2.66793633
   2564,   8.13004112,   2.82129169
   2565,   8.43327713,   2.00039983
   2566,   8.43768978,   2.64250994
   2567,   8.48352718,   2.05262876
   2568,   8.95832348,   1.85569656
   2569,    8.7571106,   1.89430237
   2570,   8.39629173,   1.96779764
   2571,   8.42165565,    1.7128644
   2572,   8.30889511,   3.21480775
   2573,   8.59616089,   2.45908308
   2574,   8.58353138,   2.27686095
   2575,   7.86075926,   3.24642897
   2576,   7.92227364,   3.35805845
   2577,   8.47394753,   1.58106148
   2578,   8.53687096,   1.27009201
   2579,   8.61498642,   1.38603175
   2580,   8.90603542,   2.36935282
   2581,   7.70717907,   3.23969913
   2582,   8.26883984,   2.80570078
   2583,   9.08734226,   1.06052506
   2584,   9.15311909,    2.7884891
   2585,   8.57314777,   1.55641949
   2586,   8.15720177,    3.0683074
   2587,   8.47964096,   2.58913255
   2588,   8.72073746,    1.9652797
   2589,   8.56253529,   1.48166502
   2590,   8.36145782,   3.23538423
   2591,    8.8829031,   2.45086479
   2592,   8.26745415,   2.88939857
   2593,   8.19261932,   2.75925064
   2594,   7.71628618,   3.17928529
   2595,   8.97216129,   1.77266431
   2596,    8.4812746,   1.93866396
   2597,   8.88217354,   1.75682342
   2598,   8.09429741,   3.03061509
   2599,   8.20939636,   2.99902415
   2600,   8.92290306,   2.52061009
   2601,    8.6970396,   1.91323507
   2602,   8.75199699,   2.09809422
   2603,   8.53316212,   2.53364205
   2604,   8.56135368,   1.92181635
   2605,   8.31494617,   2.73910832
   2606,   8.53268719,   2.64737749
   2607,    8.5925684,   2.60280252
   2608,   9.02832031,   2.57686186
   2609,   8.25644398,   2.70772696
   2610,   8.38028431,   2.78366017
   2611,   8.56387329,   2.73116255
   2612,   9.10031891,   2.50055718
   2613,   8.95364761,   2.59463167
   2614,   8.38560963,   2.86054158
   2615,    8.9172802,   2.73975468
   2616,   9.04819107,   2.65356398
   2617,   8.46820259,    2.8080442
   2618,   8.39628315,    2.9256475
   2619,    8.8784132,   2.62784052
   2620,   8.61927986,   2.79843879
   2621,   8.99462795,   2.73144221
   2622,   9.17522621,   2.57358098
   2623,   8.80416775,   2.63405681
   2624,   8.40984154,   2.70811796
   2625,   8.45150089,   2.90687132
   2626,   8.65915871,   2.75866151
   2627,   8.71836662,   2.71389532
   2628,   8.41140366,   2.98811316
   2629,    8.5159626,    2.9482882
   2630,   8.95022106,    2.8108871
   2631,   9.06569958,   2.72354674
   2632,   8.81548214,   2.67621636
   2633,   9.07997799,   2.78756428
   2634,   8.57580566,   2.86579514
   2635,   8.77697945,   2.76786804
   2636,   8.70598125,     2.616503
   2637,   8.76703358,   2.84809089
   2638,   9.08834076,   2.84420228
   2639,   8.86232853,    2.7837286
   2640,   8.64603806,    2.9062922
   2641,   9.13452435,   2.91426969
   2642,   8.66104698,   2.22372437
   2643,   8.70019531,   2.05011368
   2644,   7.96069288,   2.54203963
   2645,   8.54429626,   2.10603595
   2646,   7.73450375,   3.10896134
   2647,    8.6388979,   1.23841166
   2648,   9.23060131,   3.48818588
   2649,   9.14795494,   1.10028756
   2650,   8.72981644,   2.88821077
   2651,   8.93056774,   2.89328361
   2652,   8.66906071,  0.904357135
   2653,   8.72455215,   3.11609769
   2654,   9.10685635,   1.26913178
   2655,   9.09230423,   1.35198224
   2656,    8.3223753,   3.07830453
   2657,    8.6603632,   3.08054614
   2658,   8.62308598,   1.87020981
   2659,   8.69234371,   2.43161488
   2660,   8.98687363,   1.06576598
   2661,   8.92281723,   1.01191115
   2662,   8.57641983,   1.97215939
   2663,   7.88969469,   3.15668225
   2664,   8.84602261,   2.54928517
   2665,   8.27235317,   2.64197087
   2666,   9.27702904,   0.99013555
   2667,   8.50262928,   1.77103996
   2668,    8.9053793,   1.67768323
   2669,   8.77360439,    2.5757308
   2670,   9.20351028,    3.0582242
   2671,   8.93238258,   3.18964028
   2672,   9.12572765,    1.6138612
   2673,   8.63174915,    1.9241122
   2674,   8.56863976,   2.95157337
   2675,   8.75557613,   1.81484282
   2676,   8.60233879,   1.14249611
   2677,   9.44327068,   2.34705853
   2678,   7.32131577,    3.2454803
   2679,    7.8646369,  0.548880577
   2680,   1.58770263,   3.84096098
   2681,   3.05143571,   3.52754974
   2682,   8.60276699,   3.04595757
   2683,   3.51825547,   3.46876192
   2684,   3.68661952,   3.84802461
   2685,   8.71752357,   1.37127948
   2686,   8.23034286,   3.25175762
   2687,   9.05130196,    2.9075141
   2688,   7.69483042,   3.85539198
   2689,   5.69548607,   3.85806489
   2690,   7.03172636,   2.69048476
   2691,   6.06141758,   3.53395462
   2692,   8.77441216,   2.40675712
   2693,   1.03625286,   3.82990217
   2694,   7.38575888,   2.71295357
   2695,   7.90001392,   3.43925261
   2696,   8.59416294,   3.39870381
   2697,   9.33831406,   1.38936114
   2698,    8.7010746,   1.11758578
   2699,   7.68657732,   2.78224325
   2700,   1.07879949,   3.67016339
   2701,   6.76827765,   3.27664638
   2702,   9.09015942,   2.96170473
   2703,    8.9346714,   1.36947501
   2704,   8.70534611,   2.94380355
   2705,   8.58748055,   2.20569205
   2706,   8.59063911,   1.62419951
   2707,   3.92899323,   3.50948763
   2708,   7.64265203,  0.470163494
   2709,   6.86096954,   3.41066194
   2710,   8.70976162,   2.13260889
   2711,   9.12091446,   3.14780235
   2712,   8.77565384,   1.02841628
   2713,   7.65160847,   3.25980401
   2714,   8.79372025,   1.73783994
   2715,   1.00469089,   3.61198807
   2716,   8.96176815,   1.64163661
   2717,   8.62020683,   1.68294668
   2718,   8.66046047,   1.54729557
   2719,   8.56833458,   1.20587683
   2720,   8.69774818,   1.27345467
   2721,   8.65382099,   2.09294534
   2722,   8.71075916,   1.06509137
   2723,   8.83405495,   2.30397701
   2724,    7.7519927,   3.03354931
   2725,   8.77011204,   2.92118764
   2726,   8.80790138,   2.90447402
   2727,   8.57231998,   1.80738127
   2728,   8.88929844,   3.09520888
   2729,   9.10394955,   1.15620923
   2730,   8.76334858,   1.68938196
   2731,   8.72343063,   2.23168564
   2732,    8.9868288,   3.06822443
   2733,   8.61134243,   1.76538563
   2734,    9.0055685,   2.92723179
   2735,   8.74977589,   2.33940411
   2736,   8.74694252,   1.30856025
   2737,   8.78123569,    1.4437902
   2738,   8.90812683,   1.41991878
   2739,   8.61377621,   2.14531255
   2740,   9.09987259,    3.0713098
   2741,   8.86815453,    1.3452214
   2742,   9.04384518,   3.11373377
   2743,    8.7495451,   3.04106712
   2744,   8.73746204,    1.7591995
   2745,   9.03701401,   1.28756452
   2746,    8.7317028,   2.50821519
   2747,   8.65988159,   1.60990715
   2748,   9.05243111,    1.2053169
   2749,    8.8177433,   3.06691551
   2750,   8.85906792,   2.21281791
   2751,   8.98328018,   1.24732208
   2752,   8.55826569,    1.7178148
   2753,   8.86635208,   1.62922943
   2754,   8.88647175,   1.08169091
   2755,   8.72936821,   2.28201699
   2756,   8.77858448,   1.61486363
   2757,   8.78598881,   1.38517845
   2758,   8.97311497,   1.55099535
   2759,   8.94791412,   1.11662364
   2760,   8.88950157,   2.93180299
   2761,   8.77989197,   1.12202382
   2762,   8.91562271,    3.0298717
   2763,   8.76560593,   2.97377634
   2764,   8.77455521,   1.26394928
   2765,    8.6864481,   1.76867115
   2766,   8.83322144,   1.21438253
   2767,   8.70973396,   1.60800219
   2768,   8.98319435,   0.97707206
   2769,   8.96927643,   1.19209981
   2770,   8.75175381,   1.20878065
   2771,   8.86987782,   1.54524124
   2772,    8.8491745,   1.39447808
   2773,   9.01994801,   1.60121346
   2774,   8.76385307,   1.53057289
   2775,   7.56952858,   1.91318679
   2776,   9.91962624,   3.92073679
   2777,   9.67871189,  0.166473076
   2778,   1.28438783,   3.86728239
   2779,   3.84010839,   3.84730601
   2780,   5.83950615,   3.86078024
   2781,   7.84108686,   3.85077405
   2782,   9.68689728,   3.85792232
   2783,   4.70564079,   3.30040145
   2784,  0.352660209,   3.77740598
   2785,   8.62208462,  0.163133144
   2786,   9.82966137,   3.11007881
   2787,   9.82382965,   3.03645802
   2788,   9.84787178,   1.68720555
   2789,     9.481534,   3.67987967
   2790,   9.28571701,   3.77139997
   2791,   2.16422939,   3.57510376
   2792,  0.945467114,   3.61490798
   2793,  0.864801705,   3.70632243
   2794,   9.87251282,    2.6727109
   2795,    7.2785902,   3.77121568
   2796,   6.13031483,    3.0099678
   2797,   5.99307489,   3.05771923
   2798,   5.37601137,   3.19842458
   2799,   5.32177114,   3.21590328
   2800,   7.71151638,  0.405802995
   2801,   7.76820993,   1.14574718
   2802,    7.6479454,   2.03815627
   2803,   7.66636515,   2.11758733
   2804,   7.80430603,    1.8817898
   2805,   1.23312426,   3.80994678
   2806,   1.45744061,    3.7626102
   2807,   3.11332226,    3.7428124
   2808,   5.83430719,   3.79968643
   2809,   5.27955723,   3.76823759
   2810,   7.79451036,   1.19626379
   2811,  0.441458821,   3.70983434
   2812,  0.298021019,   3.70155907
   2813,  0.512409449,   3.71571589
   2814,   5.38835001,   3.27050233
   2815,   1.67690396,    3.6695385
   2816,   2.16601849,   3.64565015
   2817,   1.57654309,    3.6959362
   2818,   1.58202744,   3.77321362
   2819,   1.33918548,   3.74644685
   2820,   1.13407731,   3.65515614
   2821,   9.74706078,    3.2307806
   2822,    3.0129509,   3.68199539
   2823,   3.15052485,   3.65999961
   2824,    7.8587451,     1.202667
   2825,   7.78491497,  0.479054779
   2826,   7.78939009,  0.259933293
   2827,   4.12591267,    3.6963172
   2828,   3.76440811,   3.67928743
   2829,   3.21231437,   3.65857244
   2830,   9.73039532,   2.91030097
   2831,   9.72717285,   2.86672521
   2832,   9.30916595,  0.230027393
   2833,     7.270123,   2.61833882
   2834,   7.37928534,   2.54931378
   2835,   2.95296121,   3.66398811
   2836,   7.87529325,   1.85898602
   2837,   7.89994526,   1.92111099
   2838,   6.15022087,   3.06921887
   2839,   5.96585226,   3.13526821
   2840,   9.14863586,   3.62546611
   2841,   4.36489916,   3.60992408
   2842,   7.86762142,  0.185142979
   2843,   1.98358297,   3.72392726
   2844,    7.5939765,   3.71707654
   2845,   7.71194172,   3.72214603
   2846,    7.7598238,   3.73493004
   2847,    9.4768219,     0.335924
   2848,   7.89662743,  0.239894688
   2849,   9.64348602,   3.72927451
   2850,   5.59976435,   3.71184111
   2851,   5.72798395,   3.71561837
   2852,   5.78528547,   3.73534417
   2853,   2.10173059,   3.72409987
   2854,    2.1712184,   3.71611285
   2855,   4.78286028,    3.3524878
   2856,   2.80239034,   3.70566511
   2857,   4.67667007,   3.45317912
   2858,   4.60062456,   3.69937015
   2859,    8.7781992,   3.69157672
   2860,   5.82832336,   3.75299001
   2861,   6.35757446,   3.70218658
   2862,   5.21384573,   3.71615148
   2863,    5.0827837,   3.69634938
   2864,    9.1946497,   3.74757767
   2865,   7.21360874,   3.70420742
   2866,   7.08398676,   3.70073819
   2867,   4.34067488,   3.70796609
   2868,    2.4778955,   3.69929385
   2869,    9.6646452,   2.89443445
   2870,   9.67865181,   2.84210396
   2871,   3.81347513,   3.61720681
   2872,   4.62424326,    3.5427258
   2873,   4.23549557,   3.61335444
   2874,   4.17587328,   3.61987495
   2875,   3.53319693,   3.58169818
   2876,   7.87357759,   1.99731708
   2877,   7.79835415,   2.05447721
   2878,   9.22222424,  0.293312579
   2879,   9.15575695,   0.29119882
   2880,    9.2142601,   3.55466604
   2881,   9.21282291,    3.6702292
   2882,   5.90368795,   3.25716615
   2883,    6.8938632,   3.56612635
   2884,   3.84963536,   3.65595627
   2885,    3.8940475,   3.64499712
   2886,   3.47835326,    3.6687026
   2887,   3.52378869,   3.65099669
   2888,   1.96180952,   3.66815042
   2889,   2.00100613,   3.67679882
   2890,   2.04192972,   3.68816686
   2891,   5.86025429,   3.63178086
   2892,    9.7096014,   2.73290062
   2893,    6.3809948,   3.63940144
   2894,   9.52792549,  0.471455365
   2895,   9.66226196,   2.75598097
   2896,   7.66843367,   2.55697536
   2897,    5.5426693,   3.32017207
   2898,   9.66096306,    2.2052803
   2899,   2.76328897,   3.63794279
   2900,   7.84415627,  0.302431554
   2901,   7.85583544,  0.482345194
   2902,   8.25372314,   3.51721334
   2903,   9.65991688,   3.23367715
   2904,   4.73726511,   3.42621636
   2905,   6.15206289,   3.22679114
   2906,   4.06489611,   3.63878846
   2907,   7.41430759,   2.59473085
   2908,    9.2662468,   3.56549644
   2909,   5.76073885,   3.64759755
   2910,   6.95715761,    3.5648706
   2911,   9.77749252,  0.395782441
   2912,   9.54928684,  0.539401054
   2913,   9.68210411,   1.28080904
   2914,   9.59040546,   2.92667484
   2915,   7.87641478,   2.07603335
   2916,   5.98992252,   3.38947034
   2917,   9.38434124,  0.473943889
   2918,   9.20433235,  0.364824533
   2919,    4.8264389,   3.42740321
   2920,   4.78255177,   3.40184283
   2921,    5.7705555,   3.34687185
   2922,   9.62666702,   2.53793192
   2923,   6.98286724,   2.88742018
   2924,   6.99941874,   3.45664406
   2925,   8.87563992,   3.50526881
   2926,   7.27561569,   3.39972734
   2927,    8.0182209,   1.38373089
   2928,   9.64644718,   3.38550138
   2929,   9.64635468,   3.33875585
   2930,   9.70297718,   1.33453548
   2931,   5.04067564,   3.58475161
   2932,   7.93486547,   2.01728654
   2933,   6.41810322,   3.58650351
   2934,   6.52797174,   3.65000319
   2935,   7.84966803,   1.47107387
   2936,   7.84362602,   1.52684796
   2937,    8.0036993,   1.76474929
   2938,   9.70710182,    1.4466784
   2939,   8.09344292,   3.32562184
   2940,   8.53148556,  0.320437104
   2941,   7.73790121,   3.66533637
   2942,   6.03249454,   3.25955868
   2943,   5.15952015,    3.5817759
   2944,    5.0912385,   3.57573342
   2945,   9.71483326,  0.601017714
   2946,   9.63226223,  0.568853378
   2947,   8.00928497,   1.12501049
   2948,   7.94004345,  0.546327055
   2949,   6.18754101,   3.29889131
   2950,    6.1435051,   3.30076838
   2951,   8.70864868,   3.63791037
   2952,   9.59107685,   2.13939261
   2953,    9.6841774,   1.06679881
   2954,   7.92710876,   2.12449145
   2955,   5.88763618,   3.46239018
   2956,   6.02690935,   3.33910394
   2957,   6.66471815,    3.2978332
   2958,   8.39036655,   3.54404283
   2959,   8.50377941,   3.54775548
   2960,   9.25249672,  0.437073588
   2961,    9.1164217,  0.431450993
   2962,    9.5494566,   2.86943698
   2963,   9.44466877,   2.71178722
   2964,   9.58915329,   1.25731039
   2965,   9.56068897,    1.2016089
   2966,   9.55570698,   2.54223824
   2967,   6.29320097,   3.24697709
   2968,   6.39962244,    3.4945507
   2969,   7.29193449,   3.34217525
   2970,   7.19078875,   3.04856801
   2971,   8.99974728,   3.43113995
   2972,   9.47803497,   1.75214064
   2973,   7.80776644,   2.61732984
   2974,   7.06857109,   3.41776681
   2975,   8.30123138,   3.38099766
   2976,   7.95878077,   2.07856965
   2977,   6.62364817,   3.14818287
   2978,   7.89256001,   1.48989904
   2979,   7.89871168,   1.54018438
   2980,   9.51537514,   2.51383853
   2981,   8.30097771,   3.47605395
   2982,   9.47197533,    2.5345006
   2983,   9.65393448,  0.625166714
   2984,   9.58882904,   1.11467981
   2985,   6.51532173,   3.56964111
   2986,   6.45853758,   3.10725784
   2987,   7.97283077,   0.36326614
   2988,   7.97268105,  0.419591933
   2989,   9.52709007,   2.13462877
   2990,   8.01743793,  0.535080492
   2991,   9.56438065,    1.9647876
   2992,   9.48575401,   2.96153474
   2993,   7.97605896,  0.835677207
   2994,    5.6695528,    3.4954586
   2995,   7.78862906,   3.21112299
   2996,   8.82951736,   3.37271428
   2997,    8.6694994,   3.50522542
   2998,   7.94569731,   3.20126271
   2999,   7.27113676,   3.03394938
   3000,   6.45848083,   3.17883825
   3001,   6.59875393,   3.19134045
   3002,   6.37178755,   3.42455959
   3003,   6.59355402,   3.29193091
   3004,    8.4054327,   3.49803042
   3005,    9.4523325,   2.20586658
   3006,   9.55727482,   1.34292138
   3007,   9.49381733,   1.22635257
   3008,   8.18066406,   1.11130941
   3009,   8.09018707,   2.42805576
   3010,   8.22447395,    1.7697463
   3011,   9.53922558,   2.05672789
   3012,   9.53186131,   2.90593004
   3013,   8.34405327,   3.42437649
   3014,   6.59969664,    3.2493751
   3015,   9.53483295,   1.14480698
   3016,   9.34335518,   3.25547194
   3017,   9.64441299,   0.71308279
   3018,   9.52714539,   2.94519043
   3019,   8.01804256,     2.478019
   3020,   8.98668957,   3.22590399
   3021,   9.64291286,   1.43417072
   3022,   9.62545204,   2.00649619
   3023,   8.60829163,   3.45810676
   3024,   8.36929893,  0.383764923
   3025,   8.29349518,  0.375294477
   3026,   8.04430676,   1.63315475
   3027,   9.29681873,    1.5947417
   3028,   7.11867285,   3.25133324
   3029,   6.80389166,   3.21625209
   3030,    7.9575901,   3.11437321
   3031,   7.25240183,   3.19243503
   3032,    6.3398056,   3.29808998
   3033,   8.25434494,   3.18390512
   3034,    7.9312501,   2.73457146
   3035,   8.01318741,  0.415477216
   3036,   8.04589081,  0.450101167
   3037,   6.46170712,   3.26733541
   3038,   6.49698687,   3.22337794
   3039,   7.52046347,   3.14756942
   3040,   8.85481071,   3.30887222
   3041,   8.91123772,    3.2407465
   3042,   9.35317326,     1.877792
   3043,   8.99283218,   0.61517626
   3044,    6.5674777,   3.22385645
   3045,   8.42704773,   3.43222904
   3046,   9.51380539,   1.09721386
   3047,   8.26941395,   1.18166697
   3048,   8.27931404,   1.31322002
   3049,    9.4603014,   1.31788361
   3050,   9.54732513,    1.4385612
   3051,   8.16969395,   2.38973689
   3052,   9.38876057,   2.13239264
   3053,   9.27948093,     2.693964
   3054,   8.54240608,   3.39391232
   3055,   8.27360153,   1.99205542
   3056,   6.85899115,   3.06246424
   3057,   6.85696745,    3.1038146
   3058,    7.1521306,   3.18337965
   3059,   9.06350327,   3.20147276
   3060,   7.66120195,   2.83334565
   3061,   8.07405949,  0.402320951
   3062,   7.92743874,   3.07095504
   3063,   7.06964302,   3.15688133
   3064,   7.05867243,   3.10334015
   3065,   9.38387012,   2.59974146
   3066,   8.02332306,  0.380379319
   3067,   7.35136747,   3.16321754
   3068,   8.20793629,  0.439241856
   3069,   8.13455391,  0.425504565
   3070,   8.81567287,   3.32047677
   3071,   8.27333927,   1.51863837
   3072,   9.07806015,   3.15419245
   3073,   8.95576382,   3.13009262
   3074,   6.86503077,   3.14207149
   3075,   6.95532322,    3.1631372
   3076,   7.63203049,   2.94015479
   3077,   7.63170767,   2.99282503
   3078,   8.06922531,   2.53555465
   3079,   8.26212406,   1.64721382
   3080,   8.98177242,  0.664459586
   3081,    8.0189991,   2.69229794
   3082,   7.97672653,   2.88732028
   3083,   9.39428902,  0.883626223
   3084,   7.96661901,   2.95707774
   3085,   8.28998375,   3.12233996
   3086,   8.38499832,   3.17534542
   3087,   8.13199139,    3.0265696
   3088,   8.86389637,   3.21157289
   3089,   8.87284565,   3.16037011
   3090,   8.83684254,   3.27769899
   3091,   8.30192757,  0.946130812
   3092,   9.18874168,   2.64055514
   3093,   8.27447319,   2.33627462
   3094,    8.7781601,   3.27688384
   3095,   9.31199455,   2.20265508
   3096,   9.16362858,   3.09082103
   3097,   8.26461697,   2.26421428
   3098,   9.14696693,   3.01047039
   3099,   8.26584435,  0.583259225
   3100,   8.62764072,   3.15485191
   3101,   8.56895924,   3.11434507
   3102,   9.36098862,  0.942853272
   3103,   7.69365072,   2.95153093
   3104,   8.80849934,   3.27734852
   3105,   7.01332712,   3.16735148
   3106,   9.07817268,  0.735260785
   3107,   8.40834618,   3.12666988
   3108,   8.30107117,   3.03279066
   3109,   8.88490963,  0.777344048
   3110,   9.42721939,  0.915869474
   3111,   9.23022556,   2.57759809
   3112,   8.34270763,   1.50701845
   3113,   8.36293602,   1.56887543
   3114,   8.08334255,   2.72494364
   3115,    8.0437479,   2.83647704
   3116,   8.44971275,   1.10043526
   3117,   8.82151031,   3.20113897
   3118,    9.1194849,   2.64689684
   3119,   9.10486031,   2.57311177
   3120,   8.33462238,  0.868276894
   3121,    9.2437315,   2.07180643
   3122,   8.86810875,  0.849889636
   3123,   8.25199032,  0.646069229
   3124,   8.94472313,    2.9766593
   3125,   8.55372143,   3.01722884
   3126,     8.408885,   1.87738633
   3127,   8.80704784,   3.23722219
   3128,   8.27802372,   2.96790004
   3129,   8.09062767,   2.97204375
   3130,   8.62529469,   2.97622919
   3131,   9.14863586,    1.3577776
   3132,   9.01574898,  0.777237177
   3133,    8.9278965,  0.868924975
   3134,   8.48183918,   3.02210617
   3135,   8.33293056,  0.794951439
   3136,   8.45021152,  0.909482479
   3137,   8.13928413,   2.75320911
   3138,   8.15077782,   2.70534873
   3139,   8.39773369,   1.45423591
   3140,   9.18787003,   2.19661903
   3141,   9.12576294,   1.00430429
   3142,   9.07138824,   0.97035712
   3143,   8.33954144,   2.94534373
   3144,   8.40730476,   1.92503202
   3145,   8.59462929,   2.05037689
   3146,   9.09509277,    1.7959311
   3147,   8.91438389,  0.935234487
   3148,   9.09023285,   2.88795495
   3149,   8.96155739,   2.93445873
   3150,   8.14776039,   2.90218925
   3151,   8.19558144,    2.6970458
   3152,   8.45342541,   1.15043461
   3153,   8.40932178,   1.50070822
   3154,   8.65561962,   1.73188519
   3155,   9.05383587,  0.888639033
   3156,    8.3283987,   2.87909436
   3157,   8.46429539,   2.96554947
   3158,   8.92107201,   1.50495291
   3159,    9.2300415,   2.46214318
   3160,   8.97862816,   2.86964345
   3161,   9.15848827,   2.41897321
   3162,   8.97924519,  0.896105349
   3163,   8.95750523,  0.936076999
   3164,   9.03107262,    1.0196408
   3165,   8.68328094,  0.953924835
   3166,   8.85078049,   2.87472129
   3167,   8.89843655,   2.84023404
   3168,   8.62244511,   1.83104622
   3169,   8.23829365,   2.75757647
   3170,   8.19784737,   2.82172179
   3171,   8.91810322,   1.59226143
   3172,   9.04510117,   1.78611755
   3173,   9.02624321,   1.94921458
   3174,   8.87095928,   1.46447849
   3175,   8.95676517,    1.3125118
   3176,   8.65968037,   2.28439903
   3177,     8.788764,  0.971760988
   3178,   8.70913696,   1.71016347
   3179,   9.01188946,   2.79471254
   3180,   8.60609055,   1.29488158
   3181,    8.8190136,   1.49716771
   3182,    8.6644125,   1.05228639
   3183,   9.04618549,   1.10984242
   3184,   8.68119907,   1.86209953
   3185,   8.75700378,   2.01750183
   3186,   8.79683876,   2.06678677
   3187,   8.82622242,    1.0541358
   3188,   8.71876907,   1.01268435
   3189,   8.48505592,   2.67327332
   3190,    8.4334898,   2.85841751
   3191,   8.72032547,   2.19412327
   3192,   8.73351574,   1.64412963
   3193,   8.88760948,   1.29003668
   3194,   8.90315437,   1.23211622
   3195,    8.7294302,   1.57227254
   3196,   8.82024193,   1.58066416
   3197,   8.92815113,   2.67774296
   3198,   8.91719532,   1.17330527
   3199,   8.75512028,   1.07134485
   3200,    8.8033762,   2.14731956
   3201,   8.88117313,   1.96823692
   3202,   8.84504223,   1.91564465
   3203,   8.91757202,   1.80495477
   3204,   8.73316002,   1.85635352
   3205,   8.78599072,   1.94153678
   3206,   8.84920597,   2.03923225
   3207,   8.84987926,    1.7090776
   3208,   8.82261467,   2.73800611
   3209,   8.84275246,   2.11231065
   3210,    8.7834549,   2.26778984
   3211,   8.78293133,   2.22300267
   3212,    8.8251133,   1.27283227
   3213,   8.53402805,   2.80114293
   3214,   8.86096382,   1.83559501
   3215,   8.71812916,   2.78694367
   3216,   8.75141525,   2.66457891
   3217,   8.80637169,   1.86546254
   3218,   8.76075649,   2.72697091
   3219,   8.78727055,   2.70108986
*Element, type=CPS4
   1,  843,  842,  844,  846
   2,  841,  851,  852,  161
   3,  839,  860,  861,  160
   4,  840,  862,  853,  159
   5, 1113,  860,  852,  358
   6,  842,  843,    3,    1
   7, 2802,  844,  847,  178
   8,  844,  842,  845,  847
   9,  849, 1218, 1276,  192
  10, 1219, 1218,    5,  665
  11, 1217, 1220,  666,    7
  12, 1130,  234, 1275, 1217
  13, 1126, 1131,  668,  669
  14, 1204, 1132, 1128,  163
  15,  163, 1317, 1361, 1454
  16, 1617, 1515, 1703,  277
  17,  319, 1797, 1492, 1471
  18, 1258, 1214,  334, 1382
  19, 1135,  335, 1209, 1161
  20,  687,   23, 1151, 1135
  21, 1157, 1151,   23,  686
  22, 1150, 1157,  686,  685
  23, 1149, 1139,  337, 2050
  24, 2037,  322, 2111, 1961
  25, 2265,  281, 2299, 2251
  26,  268, 3177, 2543, 2509
  27, 2761, 2698, 2722, 3199
  28, 2764, 2736, 2720, 2770
  29, 2757, 2685, 2736,  240
  30, 2714,  199, 2675, 2744
  31, 2601, 2588,  184, 2673
  32, 3186, 3185,  185, 3206
  33, 2731, 3211, 3210, 2755
  34, 2692,  365, 2746, 2659
  35, 2623, 3216, 2636, 2669
  36, 2620, 2626, 3215,  401
  37, 2725, 2763, 2704, 2650
  38, 2657, 2653,  445, 3100
  39, 3090, 3040, 3070, 3104
  40, 2997, 2106, 2042, 1813
  41, 2951, 1691, 1813, 1589
  42,  612, 1442, 1352, 1301
  43,  106,  776,  967, 1105
  44,  776,  105, 1104,  967
  45,  105,  775,  968, 1104
  46,  775,  104, 1103,  968
  47, 1372, 1323,  613, 1458
  48, 1579, 1726, 2959, 1830
  49, 3054, 2034,  510, 2088
  50, 2340,  446, 2362, 2301
  51, 2674, 3130, 2682, 3125
  52,  401, 2640, 2634, 2620
  53, 2620, 2611,  382, 2626
  54,  367, 2603, 2587, 2558
  55, 2573, 2549,  351, 2659
  56, 2574, 2705, 2642, 3176
  57,  184, 2643, 2721, 3145
  58, 2673, 2658, 3184, 2601
  59, 2717, 3154, 2733, 2752
  60, 2585, 2577,  225, 2589
  61,  239, 2579, 2552, 3180
  62, 2552,  238, 2578, 3180
  63, 2527, 2489,  267, 3182
  64, 2652, 2469, 2545, 3165
  65, 2211,  281, 2347, 2311
  66, 1705, 1502, 1924,  307
  67,  335, 2218, 2099, 1556
  68, 2140, 2111,  322, 2003
  69, 1127, 1132, 1204,  261
  70,  671,  672, 1129, 1125
  71, 1381, 1251, 1462,  276
  72, 1448, 1618, 1763, 2901
  73, 1267, 1213,  333, 1385
  74, 1136,  334, 1214, 1152
  75,  688,   24, 1161, 1136
  76, 1317, 1125, 1129,  275
  77, 1129, 1134, 1191,  275
  78, 2800, 1380, 2825, 1437
  79, 1555,  318, 2987, 1517
  80, 1137,  333, 1213, 1155
  81, 1152, 1137,  689,   25
  82,  673,   12,  900,  896
  83,   12,  674,  897,  900
  84, 2826, 1733,  316, 1240
  85,  691,  690, 1156, 1138
  86, 1565, 1472, 2842,  331
  87,  302,  896,  900, 2708
  88,   13,  675,  898,  901
  89, 1153, 1154,  692,   27
  90, 1210, 1154, 1153,  331
  91,  901, 1186,  930,  897
  92,  693,  899,  676,   15
  93,  693,   28, 1206,  899
  94,   22,  684, 1139, 1149
  95, 1139, 1148, 1755,  337
  96, 1840,  337, 1755, 1656
  97, 1949, 1841, 1979,  309
  98, 2053, 3043, 2118,  310
  99, 3132, 2475, 2231, 2283
 100, 2509, 3147, 2661,  268
 101, 2764, 3212,  240, 2736
 102, 2772, 2741, 2703, 2738
 103, 2716,  214, 2560, 2668
 104, 2595, 3203, 2597, 2560
 105, 2529,  186, 2488, 3201
 106, 2528, 3206, 2488, 2448
 107, 2512, 2553, 2723, 2750
 108, 2553, 2580,  350, 2723
 109,  364, 2600, 2591, 2526
 110, 2630, 2615, 2621, 3179
 111, 3149, 3124, 2760, 2651
 112, 3089, 2728, 3073, 2671
 113, 2343, 2304, 3040, 3090
 114, 2074, 2925, 2307, 2189
 115, 1941, 2021,  553, 1863
 116, 1877, 1721, 1942,  610
 117,  778,  777, 1106,  969
 118,  610,  969, 1106, 1877
 119, 1147, 1158,  683,   20
 120, 1140,  339, 1211, 1147
 121, 1250, 1383, 2879, 1469
 122, 1922, 2961, 1704,  310
 123, 1928,  284, 2004, 1854
 124, 3132, 2283, 3106,  294
 125, 2536, 2428, 2546, 3155
 126, 3183, 2729, 2748,  255
 127, 2654, 2655,  241, 2745
 128, 2510,  228, 2541, 2481
 129, 2499, 2773, 2542, 2672
 130,  201, 2498, 2440, 2229
 131, 2314, 3173, 2389, 2517
 132, 2390, 2352,  187, 2222
 133, 2316, 2433, 2465, 2435
 134, 2507, 2433, 3161, 2525
 135, 2608, 2616,  380, 2613
 136, 2621, 2631, 2633, 3179
 137,  398, 2641, 3148, 2638
 138, 2740,  417, 2702, 3098
 139,  471, 2366, 3020, 2511
 140, 2971, 2335, 2289,  507
 141,  552, 2840, 1913, 2881
 142, 1946, 1879,  610, 1942
 143, 1107,  970,  779,  107
 144,  610, 1879, 1107,  969
 145,   20,  682, 1140, 1147
 146, 1141,  340, 1207, 1160
 147, 1259, 1207,  340, 2832
 148, 1495,  326, 1715, 2960
 149, 1995, 2132, 1852,  312
 150, 2241, 2376, 2177,  285
 151, 2395, 2467, 2438,  293
 152, 2649, 2342,  256, 2729
 153, 2361, 2339,  229, 2481
 154,  216, 2256, 2300, 3027
 155,  188, 2163, 2223, 2000
 156, 2205,  168, 2222, 3121
 157, 2247, 2260, 2316, 3140
 158, 2476, 2434, 2413, 3159
 159, 2622,  363, 2460, 3111
 160, 2370,  416, 2534,  415
 161, 3096,  442, 2711, 2740
 162, 2369, 2344, 2305,  441
 163, 2648, 2485, 2495,  505
 164, 2908, 1587, 1913, 2880
 165,  609, 2864, 1355, 1302
 166, 1108,  971,  780,  108
 167,  609, 1302, 1108,  970
 168,   19,  681, 1141, 1160
 169, 1141, 1146, 1560,  340
 170, 1386, 1559, 1714,  326
 171, 2094,  285, 1995, 1892
 172, 2241, 2294,  292, 2376
 173,  292, 2416, 2395, 2376
 174, 2259, 2126,  257, 2303
 175, 2126, 2043, 2181,  257
 176, 2087, 2254, 2035,  231
 177, 2087, 2161,  230, 2254
 178, 2972, 1969, 1827,  203
 179, 1921,  188, 2000, 1845
 180, 2054, 1953, 2110, 3052
 181, 3005, 2110, 2989,  166
 182, 2227,  362, 2282, 2173
 183, 2373, 2281, 2384, 3065
 184, 2484, 2474,  396, 2477
 185, 2129,  441, 2257,  440
 186, 2041, 2183, 2129,  440
 187,  505, 2495, 2120, 1996
 188, 1543,  551, 1694, 1773
 189, 1374,  607, 1322, 1445
 190, 1109,  972,  781,  109
 191,  608, 1322, 1109,  971
 192, 1145, 1159,  680,  679
 193, 1144, 2777, 1212, 1145
 194,  342, 1273, 1212, 2777
 195, 1665, 1599,  314, 1774
 196, 2946, 1466, 2945, 2983
 197, 1702, 1816,  286, 2431
 198, 2319, 2288, 2441,  291
 199, 2015, 2022, 2073,  272
 200, 3006, 1811, 2964, 1590
 201,  231, 3050, 1725, 1959
 202, 1977, 1960, 1969,  217
 203,  204, 1827, 1724, 1600
 204, 1695, 1916, 2991,  189
 205, 1931, 1696, 1549,  165
 206, 2898, 1931,  165, 1668
 207, 1890,  361, 2092, 1993
 208,  360, 1536, 2922, 1890
 209, 1812,  377, 1692, 1591
 210, 2020,  414, 2011,  413
 211, 1814, 1693,  468, 2041
 212, 1727, 1831, 1578,  503
 213, 1893, 2096, 1997,  550
 214, 1544, 1461, 1640, 2849
 215, 1110,  973,  782,  110
 216,  606, 1648, 1544, 1765
 217,   17,  678, 1143, 1144
 218, 1281, 1208,  343, 1393
 219, 1547, 2911, 1467, 1384
 220, 1262, 1195,  288, 1443
 221, 1526, 1353, 1602,  290
 222, 1871,  274, 1950, 1736
 223, 2953, 1722,  259, 1937
 224, 1351, 2913, 1524, 1627
 225, 1371, 1329,  233, 1457
 226,  219, 1707, 1537, 1634
 227, 1286, 1194,  191, 1396
 228,  164, 1637, 1478, 1550
 229, 1637,  164, 1668,  165
 230, 1993, 1632,  360, 1890
 231, 1370, 1330,  375, 1440
 232, 1523, 1350, 1628, 2892
 233, 1862, 2869, 2830, 1939
 234, 1864, 1720,  439, 1945
 235, 1527, 1354, 1444,  467
 236, 1373, 1328,  502, 1460
 237,  548, 1709, 1542, 1638
 238,  606, 1765, 1782, 2782
 239, 1111,  974,  783,  111
 240, 2066, 2026, 1902,  605
 241,  677,  957, 1142,   16
 242,  694,  957,  677,   29
 243,  955,  962, 1393,  343
 244, 1554, 1467, 2911,  329
 245,  946,  288, 1195,  948
 246,  946,  949, 1313,  288
 247,  289,  947,  950, 1871
 248,  274,  951, 1029, 1875
 249, 1314, 1028, 1040,  246
 250, 1329, 1027, 1041,  233
 251, 1634, 1537, 1457,  233
 252, 1749, 2788, 1025, 1043
 253, 1194,  942, 1023,  191
 254,  191, 1550, 1478, 1396
 255, 1022, 1045, 1800,  164
 256,  344, 1641, 1535, 1766
 257, 1031, 1047, 1330,  359
 258,  375, 2794, 1312, 1350
 259, 1033, 1049,  394, 1312
 260,  975,  713,  714, 1050
 261, 1035, 1051, 1311,  438
 262, 1036, 1052, 1328,  466
 263,  502, 1638, 1542, 1460
 264,  784,  112, 1112, 2776
 265, 2776,  719,   53,  784
 266,  104,  774,  977, 1103
 267,  774,  103, 1102,  977
 268, 1635,  556, 1458, 1540
 269, 1726, 1829, 1958, 2959
 270, 2162,  474, 2088, 3045
 271, 2340, 2363, 2407, 2401
 272, 2493, 3134, 2456, 2408
 273, 3156, 2614, 2618, 3143
 274, 2610, 2617, 3190, 2614
 275, 2506, 2461,  352, 2521
 276, 2473,  172, 2496, 2427
 277, 2473,  173, 2504,  172
 278, 3144, 2462,  196, 3126
 279,  210, 2571, 2551, 2412
 280, 2458,  237, 2410, 2492
 281,  238, 2410, 2457, 2578
 282,  265, 2353, 2392, 2248
 283, 2315, 2391, 3136, 2353
 284,  280, 2193, 2134, 2005
 285, 2005, 1855, 2052,  280
 286,  335, 1556, 1249, 1209
 287, 1468, 1249, 1556,  321
 288,  103,  773,  978, 1102
 289,  614, 1901, 1783, 1708
 290, 1708, 1783, 2061,  557
 291, 2127, 2064, 2137, 2902
 292, 2244, 2266, 2975, 2242
 293, 2403, 2266,  476, 2686
 294, 2547, 3108, 2656, 3085
 295,  403, 2582, 2605, 2610
 296, 3169, 2609, 2605, 2582
 297, 2497,  368, 2522, 2520
 298,  174, 2273, 2313, 2326
 299, 3055, 2214, 2070, 2150
 300, 2425,  196, 2462, 2429
 301, 2399,  210, 2412, 3010
 302,  209, 2411, 3079, 2399
 303, 3048, 2297, 2255, 2298
 304, 2206, 3047,  250, 3008
 305, 2248, 2206, 2093,  265
 306, 2226, 2166,  264, 2002
 307, 2194, 2331,  279, 2134
 308,  306, 1929, 3099, 2006
 309, 1470,  320, 3025, 1664
 310, 1905, 1616,  306, 2006
 311,  102,  772,  979, 1101
 312, 2155,  979, 1100,  616
 313, 2221, 2322, 2067, 2155
 314, 2356,  512, 2137,  558
 315, 2295, 2939, 2444,  476
 316, 2444, 2939, 2490, 2514
 317, 2508, 2539, 2479, 3115
 318, 3138, 3137, 3114, 2563
 319, 3019, 2445, 2644,  369
 320, 2278, 3051, 2327, 3009
 321, 3097, 2313, 2381,  353
 322, 1776, 1674,  180, 1886
 323, 1975, 2195, 2147, 2076
 324, 2378, 2264,  209, 2399
 325, 2171, 2044,  223, 2450
 326, 2103, 1918,  236, 2198
 327, 1999,  236, 1918, 1837
 328, 1925,  264, 2051, 1930
 329, 2002,  264, 1925, 1848
 330,  305, 2139, 2069, 1843
 331, 2187, 2055, 2069,  278
 332,  101,  771,  980, 1100
 333,  616, 2312, 2203, 2250
 334, 2250, 2203, 2108, 2174
 335, 2500,  478, 2576, 2695
 336, 2998, 2663, 3030, 2518
 337, 2406,  423, 3062, 2491
 338, 2359, 2341,  405, 2388
 339,  386, 3081, 2268, 2424
 340, 2268,  387, 2323, 2424
 341, 2082, 2152, 2016,  356
 342, 2377, 2237,  355, 2082
 343, 2932, 1674, 2976, 1507
 344, 1504, 2837, 2077,  180
 345, 1920,  208, 2032, 1853
 346,  222, 1908, 1819, 1818
 347, 1698, 1598, 1818, 1819
 348, 1490, 2824, 1817, 1699
 349, 1603,  263, 1820, 1700
 350,  301, 1798, 1494, 1475
 351, 1666, 1546,  276, 1617
 352, 1617,  277, 1904, 1666
 353,  100,  770,  981, 1099
 354,  981, 1098, 2688,  617
 355, 2844, 1900, 1767, 1533
 356, 2080,  515, 2432, 2130
 357, 2501, 2432,  515, 2519
 358,  451, 2594, 2581, 2713
 359, 2349, 3077, 3076, 3103
 360,  405, 2341, 2308, 2216
 361, 1891,  388, 1967, 2699
 362, 2323,  387, 2973, 2355
 363, 1912, 1780, 1574, 1968
 364,  176, 2065, 1419, 1343
 365, 1331, 1291, 1243, 2877
 366, 1174,  907,  192, 1416
 367, 1404, 1276,  206, 1482
 368, 1395,  235, 1662, 1405
 369, 1279, 1205,  247, 1562
 370, 1700, 1558,  262, 1603
 371, 1266, 1204,  163, 1454
 372,  261, 1204, 1266, 1387
 373,   99,  769,  982, 1098
 374,  618, 1642, 1533, 1767
 375, 1630, 2844, 1533, 1455
 376, 2159, 2080,  561, 1806
 377, 2164, 2095,  480, 2357
 378,  479, 2713, 2581, 2559
 379, 2275, 2146, 2330,  451
 380, 1885,  406, 1984, 2122
 381,  388, 1891, 1677, 1793
 382,  388, 1793, 1884, 1987
 383,  357, 1670, 1248, 1358
 384,  906,  843,  846,  903
 385,  852,  851,  933,  358
 386,   98,  768,  983, 1097
 387,  983, 1096, 1324,  619
 388, 1439, 1324,  620, 2795
 389, 1807, 1581, 1689,  517
 390, 2095, 2165, 2253,  480
 391, 2329, 2272, 2351,  452
 392,  426, 2215, 2276, 1983
 393,  406, 1885, 1769, 1678
 394, 1412, 1497, 2694, 1402
 395, 1296, 1193,  372, 1389
 396, 1113,  940,  861,  860
 397,   97,  767,  984, 1096
 398,  984, 1095, 1309,  620
 399, 2865, 1349, 1626,  564
 400,  517, 1689, 1809, 2354
 401, 2167, 3058, 2059, 3031
 402, 1897, 2213, 2142,  427
 403, 1792, 1508, 1241,  390
 404,  909,  374,  853, 1179
 405,  836,  374,  908,  158
 406,   96,  766,  985, 1095
 407,  985, 1094, 1873,  621
 408, 1935, 1932,  565, 1860
 409,  518, 2317, 2285, 2318
 410, 2318, 2285, 2974, 2332
 411, 2296, 2309,  482, 2332
 412, 1686, 1684,  429, 1619
 413, 1988, 2156, 1815, 2213
 414, 1424, 1270,  392, 2690
 415,  838,  858,  859,  157
 416,  158,  908,  857,  837
 417,   95,  765,  986, 1094
 418,  622,  986, 1093, 1872
 419, 1932, 1723, 1859,  565
 420, 2232, 2443,  483, 2296
 421,  456, 1986, 1888, 3029
 422, 1609, 1418, 1684,  455
 423,  409, 1272,  410, 1188
 424,  157,  859,  876,  832
 425,  832,  876,  877,  833
 426,  876,  859,  919,  929
 427,   94,  763,  987, 1092
 428,  763,   93, 1091,  987
 429,  567, 1347, 1436, 1658
 430,  521, 1808, 1594, 1687
 431, 3056, 1608, 1403,  430
 432, 1185,  410, 1272, 1263
 433,  880,  879,  393, 1182
 434,  152,  882,  881,  829
 435,  882,  152,  828,  883
 436,  883,  411,  918,  910
 437,   93,  762,  988, 1091
 438,  762,   92, 1090,  988
 439, 1366, 1321,  625, 1449
 440, 1583, 2985, 1803, 1687
 441, 1856,  486, 1998, 1926
 442, 1896, 1685,  458, 1605
 443,  431, 1681, 1512, 1595
 444, 1182,  918,  411,  880
 445,  918, 1182, 1595,  432
 446,   92,  761,  989, 1090
 447,  761,   91, 1089,  989
 448, 1622,  568, 1449, 1528
 449, 2933, 1679, 1802, 2893
 450, 1745, 1606, 1856, 1906
 451, 1410, 3000, 3038, 3037
 452,  433, 1183, 1359, 1244
 453,  923,  910, 1183,  433
 454,   91,  760,  990, 1089
 455,  626, 1898, 1788, 1706
 456, 1706, 1788, 2062, 2861
 457,  523, 2160, 2097, 2038
 458, 1825,  487, 1833, 2038
 459, 1799, 1746, 2967, 1735
 460,  433, 1244, 1288, 1190
 461,  434, 2796,  885,  884
 462,  829,  881,  884,  153
 463,  923,  922,  881,  882
 464,   90,  759,  991, 1088
 465, 2154,  991, 1087,  628
 466, 2220, 2321, 2068, 2154
 467, 2239,  524, 2196,  570
 468, 2101,  524, 2081, 2157
 469,  461, 1510, 1573, 1673
 470, 1415, 1377, 2796, 2838
 471,  831,  435,  854,  151
 472,  830,  885,  920,  154
 473,   89,  758,  992, 1087
 474,  628, 2421, 2200, 2246
 475, 2246, 2200, 2109, 2172
 476, 2172, 2891, 2243,  571
 477, 2916, 2048,  489, 2956
 478, 1459,  462, 1672, 1516
 479,  822,  436,  848,  148
 480,   88,  757,  993, 1086
 481,  993, 1085, 2689,  629
 482, 2850, 1899, 1768, 1532
 483,  573, 2079, 1965, 1899
 484,  491, 1834, 1957, 1737
 485,  148,  848,  937,  823
 486,  823,  937,  934,  824
 487,   87,  756,  994, 1085
 488,  630, 1643, 1532, 1768
 489, 1625, 2850, 1532, 1452
 490, 2158, 2079,  573, 1804
 491, 1570,  491, 1737, 1839
 492, 1192, 1285, 1400,  437
 493,  437, 1170,  935,  938
 494,  826,  464,  936,  827
 495,  818, 1222, 1225,  144
 496, 2783, 1421, 1760,  497
 497, 1650,  580, 1463, 1551
 498, 1781,  638, 1903, 2027
 499,  746,   77, 1074,  995
 500,  639, 2001, 1943, 1868
 501,   77,  745,  996, 1074
 502,  640, 2100, 2019, 1869
 503, 1771,  583, 1869, 2019
 504, 2707, 1332, 1770,  537
 505,  139,  931,  887,  808
 506,  817, 1162,  931,  139
 507,  501,  142,  816, 1164
 508, 1164,  816,  141,  500
 509,  536, 1181, 1268, 1344
 510, 1486, 1553, 2906, 1428
 511, 1943, 1734, 2827, 1868
 512, 1734, 1943, 1869,  583
 513,   86,  755,  997, 1084
 514,  997, 1083, 1325,  631
 515, 1438, 1325,  632, 2809
 516, 1805, 1582, 1688,  529
 517, 1297, 1170,  437, 1400
 518, 1264, 2814, 1744,  493
 519,   85,  754,  998, 1083
 520,  998, 1082, 1310,  632
 521, 2862, 1348, 1624,  576
 522, 1810,  529, 1688, 1593
 523, 1413,  493, 1915, 2046
 524,  465,  936, 1172, 1265
 525, 1172,  936,  464, 1464
 526,   84,  753,  999, 1082
 527,  999, 1081, 1874,  633
 528, 1661,  531, 1481, 1509
 529,  494, 1407, 1265, 1172
 530,   83,  752, 1000, 1081
 531,  634, 1000, 1080, 1880
 532, 1649,  578, 1719,  635
 533, 1858, 1849, 1762, 1716
 534, 1563, 1334, 1653, 1762
 535,  144, 1225, 1228,  819
 536,   82,  750, 1001, 1079
 537,  750,   81, 1078, 1001
 538,  579, 1356, 1446, 2858
 539, 1586, 1697, 2872, 1790
 540, 1732, 2904, 2920, 2919
 541,   81,  749, 1002, 1078
 542,  749,   80, 1077, 1002
 543, 1376, 1320,  637, 1463
 544, 1697, 1577, 1836, 2872
 545,   80,  748, 1003, 1077
 546,  748,   79, 1076, 1003
 547, 1463,  580, 1552, 1376
 548,   79,  747, 1004, 1076
 549,   76,  744, 1005, 1073
 550, 1005, 1072, 2684,  641
 551, 2090, 2049, 2779,  641
 552, 1730, 1450, 2871, 2828
 553,  808,  887,  894,  136
 554,   75,  743, 1006, 1072
 555,  642, 1644, 1518, 1895
 556, 1895, 1518, 1620,  585
 557,  585, 1451, 1397, 1778
 558,  137,  892,  891,  811
 559,  136,  894,  895,  809
 560,   74,  742, 1007, 1071
 561, 1007, 1070, 1326,  643
 562, 1365, 1326,  644, 1434
 563, 1290, 1178,  539, 2875
 564,  890,  889,  812,  138
 565,  892,  137,  810,  893
 566,   73,  741, 1008, 1070
 567, 1008, 1069, 1304,  644
 568, 1338, 1289,  540, 1315
 569,  135,  886,  875,  804
 570,  541,  888,  889, 2480
 571,   72,  740, 1009, 1069
 572, 1009, 1068, 1822,  645
 573, 2807,  588, 1748,  645
 574, 1990, 2031, 2681,  541
 575,  804,  875,  870,  132
 576,  542,  875,  886, 2681
 577,   71,  739, 1010, 1068
 578, 1010, 1067, 1671,  646
 579, 1378, 1411, 2856,  589
 580, 2031, 1255,  542, 2681
 581,  805,  871,  872,  133
 582,   70,  737, 1011, 1066
 583,  737,   69, 1065, 1011
 584, 1175, 1729,  590, 1364
 585, 1375,  543,  917, 1177
 586,  806,  873, 1316,  134
 587,   69,  736, 1012, 1065
 588,  736,   68, 1064, 1012
 589,  590, 1433, 1363, 1336
 590,  545,  874,  911, 1180
 591,  545,  131,  807,  874
 592,  134, 1316,  874,  807
 593,   68,  735, 1013, 1064
 594,  735,   67, 1063, 1013
 595, 2868,  591, 1257, 1336
 596,  941,  546,  856, 1287
 597,  546,  130,  802,  856
 598,  131,  545,  856,  802
 599,   67,  734, 1014, 1063
 600, 1923, 1014, 1062,  651
 601, 1669, 1851, 1747, 1894
 602,  547,  129,  803,  855
 603,  855,  803,  130,  546
 604,   66,  733, 1015, 1062
 605,  651, 2136, 1663, 1789
 606, 2854, 2853,  592, 2816
 607, 1197,  797,  129,  547
 608,  797, 1197, 1118,  126
 609,   65,  732, 1016, 1061
 610,  652, 1645, 1496, 1500
 611, 1339,  594, 1256, 1430
 612,  125,  921,  868,  793
 613,  798, 1119, 1120,  127
 614,  126, 1118, 1119,  798
 615,   64,  731, 1017, 1060
 616,  653, 1821, 1761, 1431
 617,  799, 1121, 1122,  800
 618,  127, 1120, 1121,  799
 619,   63,  730, 1018, 1059
 620, 2680, 1018, 1058,  655
 621, 2806,  596, 1399,  655
 622,  801, 1123,  921,  125
 623,  800, 1122, 1124,  128
 624,   62,  729, 1019, 1058
 625, 1327, 1019, 1057,  656
 626, 1293, 1409, 1260, 2819
 627,  794,  867,  865,  124
 628,   61,  728, 1020, 1057
 629, 1020, 1056, 1306, 2778
 630,  597, 2819, 1261, 1173
 631,  866,  864,  912,  916
 632,  124,  865,  864,  795
 633,   60,  727, 1021, 1056
 634,  658, 2693, 1055,  943
 635, 2018,  599, 2700, 1394
 636,  866,  796,  795,  864
 637,  863, 1237,  790,  123
 638,   59,  726,  943, 1055
 639,  943,  954, 2017,  658
 640,  600, 2793, 1718, 1655
 641,  120, 1236, 1235,  121
 642,   58,  724,  944,  953
 643,  724,   57,  952,  944
 644, 1357, 1453,  601, 1584
 645,  122, 1233, 1232,  792
 646,  121, 1235, 1234,  791
 647,   57,  723,  945,  952
 648,  723,   56,  966,  945
 649, 1379, 1319,  661, 1465
 650, 1116, 1216, 1764,  603
 651,   56,  722,  958,  966
 652,  722,   55,  965,  958
 653, 2811, 1654, 1764,  602
 654,  119, 1216, 1116,  787
 655,   55,  721,  959,  965
 656, 1569, 1483,  663, 1408
 657,  789, 1114,  114,  117
 658,  786,  116, 1284,  956
 659,  786,  956,  720,  113
 660, 1231, 1230,  115,  785
 661,  500,  141,  815, 1163
 662, 1163,  815,  140,  499
 663, 1238, 1163,  499, 1738
 664, 1659, 2873, 1652, 2116
 665, 1711,  638, 1781, 2867
 666, 1717,  581, 2867, 1781
 667,  499,  140,  814, 1165
 668, 1842, 1742,  533, 1954
 669,  534, 1842, 1954, 1985
 670, 1954, 1728, 1835, 1985
 671, 1226,  143,  821, 1224
 672,  498, 1226, 1224, 1927
 673, 1836,  533, 1838, 2872
 674, 1838, 1844, 1760, 2857
 675,  146, 1227, 1224,  821
 676,  820, 1229, 1227,  146
 677, 1292, 1283, 1225, 1222
 678,  465,  147,  827,  936
 679,  939,  150,  825,  935
 680,  411,  155,  835,  880
 681, 1045,  708,   43, 1030
 682, 1881, 2898, 1668, 1785
 683, 2024,  166, 2989, 2952
 684,  167, 3052, 2192, 3095
 685,  347, 2325, 2233, 2286
 686, 2588, 3185, 2643,  184
 687,  171, 2739, 2721, 2710
 688, 2755, 3176, 2642, 2731
 689,  171, 3191, 2731, 2642
 690, 2070, 2214, 2273,  174
 691, 2976,  175, 2426, 2954
 692, 2228, 1484, 2915, 2954
 693,  907, 1174,  178,  847
 694, 2837, 1504, 2876, 1426
 695, 1886,  181, 1976, 1776
 696, 2425, 2429, 2201,  195
 697, 2462, 3144, 2570,  182
 698, 3204, 2569, 2601, 3184
 699, 2658, 2673, 2604,  197
 700, 2352, 2390, 2420,  186
 701, 2163, 3121, 2222,  187
 702, 1953, 2054, 1921,  189
 703, 1396,  190, 1477, 1286
 704,   41, 1023,  942,  706
 705, 1276, 1404, 1832,  192
 706, 1853, 2032, 2937, 2083
 707, 2147,  194, 2212, 2470
 708, 3010, 2412, 2425,  195
 709, 2596, 2524,  197, 2604
 710, 2730, 2714, 2744, 3178
 711, 3168, 2727, 2733,  198
 712, 2555, 2529, 3201, 3202
 713, 2163,  187, 2279, 2223
 714, 3042, 1845, 2000, 2223
 715, 1489, 2991, 1916,  204
 716,  205, 1194, 1286, 1548
 717,  706,  942, 1024,   40
 718, 2775,  907,  847,  845
 719,  206, 1277, 1406, 1482
 720, 2979, 1920, 1710, 2936
 721, 2117, 2058, 2044, 2171
 722,  210, 2502, 2554, 2571
 723, 2767, 3195, 2756, 3192
 724, 2577, 2585, 2706,  211
 725, 2668, 2560, 2597, 3207
 726,  215, 2440, 2498, 2468
 727, 2256, 2179, 2229, 2440
 728, 2119, 2057, 3042,  202
 729, 1960, 1724, 1827, 1969
 730, 1784, 1749, 1600, 1724
 731,  705, 1043, 1025,   39
 732, 1276, 1218, 1219,  206
 733, 1405, 1275,  234, 1395
 734, 2044, 1956, 2103,  223
 735, 2423, 2198, 2255, 2297
 736, 2492, 2410,  238, 2523
 737,  227, 2737, 2757, 2772
 738, 2589, 2523, 2579,  226
 739, 2753, 2668, 3207,  213
 740,  215, 2300, 2256, 2440
 741, 2161, 2087, 1981, 2224
 742, 1959, 1725, 1828, 1977
 743, 2938, 1457, 1537,  232
 744, 1026,   38,  704, 1042
 745, 1219, 1221, 1277,  206
 746,  234, 1205, 1279, 1395
 747, 1490, 1699, 1598, 1480
 748, 2206,  251, 2400, 3047
 749, 2383, 2457, 2410,  237
 750,  253, 2770, 2720, 2647
 751,  239, 3180, 2647, 2720
 752, 2655, 2481, 2541,  241
 753, 2418,  243, 2459,  242
 754, 2035, 2254, 2697, 2105
 755, 3021, 1725, 3050, 1690
 756, 1329, 1371, 1441,  246
 757, 1027,   37,  703, 1041
 758, 1476, 1558, 1756, 2801
 759, 2112, 2060,  249, 2947
 760, 2093, 2166, 3091,  265
 761,  266, 2414, 2392, 2353
 762, 3187,  268, 2661, 2754
 763, 2527, 2676, 2449, 2489
 764, 3194, 3198, 2769, 2751
 765, 2748, 2729,  256, 2654
 766, 2418,  256, 2342,  257
 767, 2105, 2181, 2043, 3049
 768, 2010, 1524, 2964, 2965
 769, 1028,   36,  702, 1040
 770, 1130, 1133, 1205,  234
 771, 1603, 1494, 1701,  263
 772, 2166, 2226, 2310, 3091
 773, 2391,  297, 2371, 3136
 774, 2543,  295, 3122, 2509
 775, 2398,  266, 2371, 2345
 776, 3163, 2768, 2661, 3147
 777, 3142,  269, 3155, 2546
 778,  271, 2303, 2364, 2666
 779, 3046, 2306, 2190, 2073
 780, 2022, 1861, 2953, 1937
 781, 1861, 1938, 1722, 2953
 782,   35, 1029,  951,  700
 783,  247, 1564, 1476, 2801
 784, 1361, 1317,  275, 1381
 785,  279, 1929, 2005, 2134
 786, 2211, 2311, 2193,  280
 787, 2346, 2347,  281, 2265
 788, 2251, 2184,  309, 2176
 789, 2320, 2209, 2052,  307
 790,  282, 2230, 2178, 2284
 791, 2283, 2231, 3080,  283
 792, 2177,  284, 1928, 2132
 793,  285, 2094, 2197, 2241
 794, 1614, 3017, 1702, 2983
 795, 1353, 1526,  287, 1443
 796,  949,  698,   34,  947
 797,  950,  699,  700,  951
 798,  290, 1602, 1736, 1870
 799, 1951, 1914,  290, 1870
 800, 2441, 2288, 3110, 3083
 801, 2376, 2395,  293, 2387
 802, 2385, 2428, 2536,  294
 803, 3122, 3109, 2475, 3133
 804, 2238, 2194, 2134, 2193
 805, 2144, 2331, 2271, 2210
 806, 2270, 2208, 2056,  300
 807, 1437, 1520,  302, 2708
 808, 2990, 2948, 1763,  304
 809, 1924, 1502,  321, 2940
 810, 1980, 2124,  322, 2037
 811, 2114, 1979,  310, 2118
 812,  310, 1704, 1854, 2053
 813, 1852,  311, 1615, 2960
 814, 1846, 2917,  312, 1715
 815, 2912, 2168,  313, 2894
 816,  315, 1195, 1262, 1384
 817,  697,  948,  960,   32
 818, 1253, 1167,  316, 1733
 819, 1448,  317, 1517, 1618
 820,  318, 1471, 1492, 1601
 821, 1841, 1949,  323, 1743
 822,  324, 1469, 1501, 1922
 823, 1495, 2918, 2878, 1474
 824,  327, 1846, 1714, 1559
 825, 1491, 2045, 2847, 1561
 826, 1487,  329, 2911, 1660
 827,  696,  963,  961,   31
 828, 1271, 1240,  330, 1210
 829, 1388,  318, 1555, 2848
 830,  332, 1213, 1267, 1388
 831,  333, 1214, 1258, 1385
 832,  338, 1211, 1250, 1557
 833,  339, 1207, 1259, 1383
 834, 2832, 1473, 1386, 1474
 835, 1273, 1561,  341, 1212
 836, 1208, 1281,  342, 2777
 837,  962,  695,   31,  961
 838, 1046,  709,   44, 1031
 839, 1766, 1535, 1632,  345
 840,  345, 2404, 2394, 1881
 841, 2677, 2173, 2282,  347
 842, 2325,  348, 2260, 2233
 843, 2580, 2553,  349, 2526
 844,  366, 2573, 2659, 2746
 845, 2313, 2273, 2452, 2381
 846,  174, 2326, 2199, 2078
 847, 1499, 1362, 1343, 1419
 848, 1047,  710,   45, 1032
 849,  359, 1330, 1370, 1456
 850, 1994, 1692,  377, 2281
 851, 2373,  362, 2227, 2982
 852, 2460, 2413,  362, 2386
 853, 2525, 2612,  364, 2507
 854, 2591, 2600, 2664,  365
 855, 2587, 2603, 2607, 2606
 856, 2436,  368, 2497, 2464
 857, 2245, 3009, 2437, 3019
 858, 2487, 2446,  370, 2217
 859, 1248, 1299, 1176,  358
 860, 1048,  711,   46, 1033
 861, 1350, 1523, 1440,  375
 862, 2430,  378, 2384, 2963
 863, 2494, 3053, 2505, 3092
 864, 2631, 2616, 3118,  379
 865,  381, 2619, 3197, 2615
 866, 2626,  382, 2627, 3215
 867, 2566, 2550, 2558, 2587
 868, 2327, 2486, 2437, 3009
 869, 1987, 2896, 2202, 2072
 870,  389, 1793, 1677, 1596
 871, 1412, 1296, 1389,  389
 872,  373, 1179,  853,  862
 873,  878,  877,  924, 2135
 874,  833,  877,  878,  156
 875, 1049,  712,   47, 1034
 876, 1753,  395, 1628,  394
 877, 2870, 1911, 2895,  395
 878, 2992, 2477, 3012, 3018
 879,  415, 2534,  397, 2336
 880, 3148, 2641, 2702, 2687
 881, 3167, 2630, 3160, 2651
 882, 2634, 2674, 2629,  402
 883, 2617,  383, 2611, 3213
 884, 2538, 2564, 2508, 3115
 885, 2207, 3034, 2388,  405
 886, 2084, 1596, 1677, 1891
 887, 1497, 1412,  389, 1596
 888, 1508, 1741, 1422,  391
 889,  929,  919, 1188,  410
 890,  713,  975, 1034,   47
 891, 1944, 1939,  412, 2787
 892, 2020, 1864, 1945, 2075
 893, 2188, 2075,  440, 2257
 894, 2305, 2370,  415, 2291
 895, 2740, 2711, 3072, 2742
 896, 2760, 3124, 2762,  418
 897, 2456, 3125, 2682, 3101
 898, 2763, 2743,  419, 2704
 899, 2614, 3190, 2625, 2618
 900, 2561, 2592, 3128, 2599
 901, 2402, 2341, 2359, 2405
 902,  424, 2358, 2341, 2402
 903, 1885,  426, 1983, 1769
 904, 1988, 2213, 1897, 2999
 905, 1657, 1572, 1423,  408
 906, 1403, 1263, 1272, 1435
 907, 1403, 1608, 1883, 1263
 908,  149,  938,  935,  825
 909,  824,  934,  938,  149
 910,   48,  715, 1051, 1035
 911, 1354, 1527, 1631, 2821
 912, 1588, 1814, 2013, 2903
 913, 2107, 2183, 2041,  468
 914,  442, 2344, 2369, 2453
 915, 2511, 3059, 2533, 2482
 916, 2671, 3041, 3088, 3089
 917, 2340, 2301,  474, 2363
 918, 3127, 2343, 3090, 3104
 919, 2401, 2408,  446, 2340
 920,  447, 3085, 2656, 2531
 921, 2544,  449, 2530, 2557
 922,  450, 2455, 2491, 2663
 923, 2330, 2349, 2724, 2646
 924, 2215, 2275, 3039,  452
 925, 2215,  452, 2328, 2276
 926, 1989, 2059, 1824, 2970
 927, 2267,  454, 3063, 3064
 928, 3074, 2085, 1986,  456
 929, 3056, 3057, 1683, 1608
 930, 1605,  458, 1420, 1512
 931, 1359, 1183,  432, 1420
 932, 1398, 1298, 1190, 1288
 933, 1510, 1252, 1415, 1604
 934,  854, 1168,  869,  436
 935,  932,  869,  462, 1459
 936, 1036,   49,  716, 1052
 937,  466, 1328, 1373, 1444
 938, 1693, 1578, 1831,  468
 939, 2145, 2107, 2033, 2120
 940, 2482, 2335,  471, 2511
 941, 2307, 2996, 2258, 2189
 942, 2128, 2042, 2182,  472
 943, 2403,  475, 2975, 2266
 944, 2451, 2686,  476, 2444
 945, 2518,  477, 2548, 2998
 946, 2559,  478, 2516,  479
 947, 2329,  452, 3039, 2393
 948,  480, 2253, 2272, 2329
 949, 2252, 2309, 2296,  483
 950, 2123, 1888, 1986, 2138
 951, 1801,  486, 3037, 3038
 952, 1746, 1799, 2905,  460
 953, 2942, 1604, 1972, 1791
 954, 2204, 1672, 2882, 2048
 955, 1390, 1516, 2921, 1834
 956, 1285, 1192, 1571,  463
 957,  499, 1165, 1300, 1738
 958,  500, 1163, 1238, 1196
 959, 1181, 1189, 1162,  501
 960, 1344, 1268, 1196,  535
 961, 1037,   50,  717, 1053
 962, 1460,  503, 1541, 1373
 963, 2096, 1893,  504, 1727
 964, 1694,  505, 1996, 1773
 965, 2908,  505, 1694, 1587
 966, 2014, 2021,  507, 2289
 967,  556, 1726, 1579, 1539
 968, 1958, 1982,  510, 2959
 969,  512, 2337, 2295, 2244
 970,  513, 2695, 2576, 2365
 971, 2466,  514, 2432, 2501
 972, 2159, 2007,  515, 2080
 973, 2253, 2165, 2269,  481
 974,  517, 2354, 2926, 2269
 975, 1808, 2047,  520, 2008
 976, 1856, 1926,  522, 1906
 977,  525, 1971, 2081, 2691
 978, 2169, 2175, 2955, 2102
 979, 1750, 1570, 1839,  528
 980, 1750,  528, 1805, 1826
 981, 1407, 1509, 1481,  495
 982, 2919, 1563,  532, 1732
 983, 1652, 1568,  535, 1713
 984, 1332, 2707,  536, 1428
 985, 1486, 1344,  535, 1568
 986,  927,  894,  887,  928
 987,  895,  926, 2683,  893
 988,  718, 1054, 1038,   51
 989, 2849, 1782, 1765, 1544
 990, 1445, 1322,  608, 2790
 991, 1754,  552, 2864,  609
 992,  553, 1946, 1942, 1863
 993, 1721,  554, 1863, 1942
 994,  612, 1323, 1372, 1442
 995, 1525, 1352, 1442,  555
 996, 1958, 1829, 1978, 2958
 997, 2064, 2127, 2061, 2151
 998, 2356, 2322, 2262, 2397
 999, 2186, 2130, 2432,  514
1000, 2846, 2845, 2941,  560
1001, 2159, 1682,  516, 2007
1002,  562, 1534, 1581, 1682
1003, 1592,  563, 1522, 2865
1004, 1909,  564, 2866, 1936
1005, 1859, 1933, 2023,  565
1006, 2008, 1519, 1594, 1808
1007, 1658, 1583, 1687,  567
1008, 1679, 2933, 1962, 2985
1009,  570, 2196, 2063, 2148
1010,  526, 2115, 2185, 2131
1011, 2860, 2852,  572, 2109
1012, 1907, 1680,  528, 1839
1013,  574, 1531, 1582, 1680
1014, 1521, 1593, 1688,  575
1015,  530, 1661, 1509, 2125
1016,  578, 1849, 1858, 1866
1017, 2039, 1545, 1586, 1790
1018, 1397,  538, 1450, 1730
1019, 2875, 1451, 2887, 1290
1020,  587, 1315, 1392, 1485
1021,  587, 1503, 1338, 1315
1022, 1919, 2823,  588, 2807
1023, 1378, 1177, 1255, 2835
1024, 1375, 1254,  904,  543
1025,  874, 1316, 1333,  911
1026,  545, 1180, 1287,  856
1027,  905,  855,  546,  941
1028, 1280, 1203, 1242,  592
1029, 1202, 1201, 1120, 1119
1030,  867,  868,  915,  914
1031,  913,  912,  864,  865
1032, 1236, 1237, 2792, 1867
1033, 1566, 2813, 1575,  601
1034, 1116,  603, 1712, 1117
1035,  604, 1712, 1576, 1408
1036, 1540, 1458,  613, 1636
1037, 2155, 2067, 2028,  615
1038,  618, 1767, 1786, 2688
1039, 1369,  619, 1324, 1439
1040, 1309, 1349, 2795,  620
1041,  621, 1873, 1752, 1626
1042, 1723, 1932, 1872,  623
1043, 1308, 1347, 1621,  623
1044,  624, 1321, 1366, 1436
1045, 1528, 1449,  625, 1623
1046, 2154, 2068, 2029,  627
1047,  630, 1768, 1787, 2689
1048, 1367,  631, 1325, 1438
1049, 1310, 1348, 2809,  632
1050,  633, 1874, 1751, 1624
1051, 1948, 1880,  635, 1719
1052, 1307, 1356, 1649,  635
1053,  636, 1320, 1376, 1446
1054,  642, 1895, 1992, 2684
1055, 1620, 1518, 1447,  586
1056,  643, 1326, 1365, 1447
1057,  644, 1304, 1346, 1434
1058, 1847, 1919, 2807, 2030
1059, 1887, 1411, 1378, 2835
1060,  647, 1303, 1345, 1506
1061,  648, 1318, 1363, 1433
1062, 1612, 1425,  649, 1675
1063, 1789, 1851, 1923,  651
1064,  652, 1500, 1663, 2136
1065, 1430, 1256,  593, 2888
1066,  594, 1431, 1246, 1200
1067, 2818, 2680,  655, 1399
1068, 1409, 1327,  656, 1260
1069,  656, 2778, 1757, 1260
1070, 2693, 2018, 1394,  657
1071, 1718, 1955,  658, 2017
1072,  659, 1305, 1357, 1655
1073,  660, 1319, 1379, 1453
1074, 1567, 1465,  661, 1646
1075, 1230, 1408,  663, 1284
1076, 1218,  849,    4,    5
1077, 1277, 1221, 1220,  220
1078, 1130, 1217,    7,  667
1079, 1205, 1133, 1131,  247
1080, 1127, 1126,  669,    9
1081, 1125, 1128,   10,  671
1082,  896, 1134,   11,  673
1083, 2708,  900,  897,  930
1084, 1186,  901,  898, 1360
1085,  902,  899, 1206,  330
1086,   16, 1142, 1143,  678
1087,  679,   17, 1144, 1145
1088, 1146, 1141,  681,   18
1089, 1148, 1139,  684,   21
1090, 1149, 1150,  685,   22
1091, 1135, 1161,   24,  687
1092, 1136, 1152,   25,  688
1093, 1137, 1155,   26,  689
1094, 1155, 1156,  690,   26
1095, 1138, 1153,   27,  691
1096,  330, 1206, 1154, 1210
1097,   30,  955,  957,  694
1098,  961,  329, 1393,  962
1099,   32,  960,  963,  696
1100,   33,  946,  948,  697
1101,  947,  289, 1313,  949
1102,  699,  950,  947,   34
1103,   36, 1028, 1039,  701
1104,   37, 1027, 1040,  702
1105,   38, 1026, 1041,  703
1106,   39, 1025, 1042,  704
1107,   40, 1024, 1043,  705
1108,   42, 1022, 1044,  707
1109, 1030,  344, 1800, 1045
1110, 1031,  359, 1641, 1046
1111, 2794, 1047, 1032, 1048
1112, 1049, 1034,  412, 1876
1113, 1034,  975, 2787,  412
1114, 1035,  438, 2786, 1050
1115, 1036,  466, 1311, 1051
1116, 1037,  502, 1328, 1052
1117, 1053, 1038,  548, 1638
1118,   52,  976, 1054,  718
1119,  956,  964,   54,  720
1120,  965,  959, 1483,  662
1121,  966,  958, 1646,  661
1122,  952,  945, 1319,  660
1123,  954,  953,  659, 2017
1124, 1021,  657, 1306, 1056
1125, 1057, 1020, 2778,  656
1126, 1058, 1019, 1327,  655
1127, 1059, 1018, 2680,  654
1128, 1060, 1017, 1821,  653
1129, 1061, 1016, 1645,  652
1130, 1062, 1015, 2136,  651
1131,  650, 1063, 1014, 1923
1132, 1064, 1013, 1675,  649
1133, 1065, 1012, 1318,  648
1134, 1066,  647, 1671, 1067
1135, 1010,  646, 1822, 1068
1136, 1069, 1009,  645, 1304
1137, 1070, 1008,  644, 1326
1138, 1071, 1007,  643, 1644
1139, 1072, 1006,  642, 2684
1140, 1073, 1005,  641, 2779
1141, 1074,  996, 2100,  640
1142,  995, 1075,   78,  746
1143, 1076, 1004, 1903,  638
1144, 1077, 1003, 1647,  637
1145, 1078, 1002, 1320,  636
1146, 1080, 1079,  635, 1880
1147, 1081, 1000,  634, 1874
1148, 1082,  999,  633, 1310
1149, 1083,  998,  632, 1325
1150, 1084,  997,  631, 1643
1151, 1085,  994,  630, 2689
1152, 1086,  993,  629, 2780
1153, 1087,  992, 2421,  628
1154,  627, 1088,  991, 2154
1155, 1089,  990, 1898,  626
1156, 1090,  989, 1623,  625
1157, 1091,  988, 1321,  624
1158, 1093, 1092,  623, 1872
1159, 1094,  986,  622, 1873
1160, 1095,  985,  621, 1309
1161, 1096,  984,  620, 1324
1162, 1097,  983,  619, 1642
1163, 1098,  982,  618, 2688
1164, 1099,  981,  617, 2781
1165, 1100,  980, 2312,  616
1166,  615, 1101,  979, 2155
1167, 1102,  978, 1901,  614
1168, 1103,  977, 1636,  613
1169, 1104,  968, 1323,  612
1170, 1106, 1105,  611, 1877
1171,  969, 1107,  107,  778
1172,  970, 1108,  108,  779
1173,  971, 1109,  109,  780
1174,  972, 1110,  110,  781
1175,  973, 1111,  111,  782
1176,  976, 2776, 1112,  605
1177,  114, 1114, 1231,  785
1178,  788, 1115, 1114,  789
1179,  791, 1234, 1233,  122
1180,  792, 1232, 1216,  119
1181,  793,  868,  867,  794
1182, 1199, 1122, 1121, 1200
1183, 1215, 1123, 1124, 1198
1184,  871,  805,  132,  870
1185,  873,  806,  133,  872
1186,  811,  891,  890,  138
1187,  812,  889,  888,  813
1188, 1165,  814,  143, 1226
1189,  142,  501, 1162,  817
1190,  147,  465, 1222,  818
1191, 1228, 1225, 1283, 1282
1192,  145, 1223, 1229,  820
1193,  436,  822,  151,  854
1194,  826,  150,  939,  464
1195,  155,  411,  883,  828
1196,  885,  830,  153,  884
1197,  435,  831,  154,  920
1198,  879,  834,  156,  878
1199,  834,  879,  880,  835
1200,  374,  836,  159,  853
1201,  858,  838,  837,  857
1202,  860,  839,  161,  852
1203,  160,  861,  862,  840
1204,  851,  841,  162,  906
1205,  842,    1,    2,  845
1206,  845,    2,  664, 2775
1207,  850,  846,  844, 2802
1208,  907, 2775,  849,  192
1209, 1166,  933,  851,  906
1210,    3,  843,  906,  162
1211,  848,  436,  869,  932
1212,  664,    4,  849, 2775
1213,  178, 1291,  850, 2802
1214,  933, 1166, 1269, 1358
1215, 1613, 1287, 1180,  591
1216,  857,  908, 1169, 2690
1217,  858,  857, 2690,  392
1218,  859,  858,  392,  919
1219,  919,  392, 1270, 1188
1220, 1176, 1239, 1113,  358
1221,  862,  861,  940,  373
1222, 2792, 2715,  599, 1867
1223,  863,  123,  796,  866
1224, 2820, 2700,  916,  912
1225,  914,  913,  865,  867
1226,  921, 1184,  915,  868
1227,  542,  917,  870,  875
1228,  871,  870,  917,  543
1229,  872,  871,  543,  904
1230,  873,  872,  904,  544
1231, 1316,  873,  544, 1333
1232, 1175, 1364, 1333,  544
1233,  886,  135,  813,  888
1234,  877,  876,  929,  924
1235, 2135,  924, 1185, 1429
1236,  879,  878, 2135,  393
1237, 1182,  393, 1488, 1595
1238,  884,  881,  922,  434
1239,  910,  923,  882,  883
1240, 1252, 2797, 1377, 1415
1241,  541, 2681,  886,  888
1242,  538,  927,  928, 1450
1243,  889,  890, 1289, 2480
1244,  540, 1289,  890,  891
1245,  891,  892,  925,  540
1246,  893,  810,  809,  895
1247, 2683,  925,  892,  893
1248,  895,  894,  927,  926
1249,  896,  302, 1191, 1134
1250,  674,   13,  901,  897
1251,  675,   14,  902,  898
1252, 1360,  898,  902,  330
1253,   14,  676,  899,  902
1254,  903,  846,  850, 2803
1255, 1166,  906,  903,  177
1256,  904, 1254, 1175,  544
1257, 1779, 1414,  905,  941
1258, 2791,  905, 1414, 2816
1259,  908,  374,  909, 1247
1260,  909, 2833, 1241, 1247
1261, 1169,  908, 1247,  391
1262, 1183,  910,  918,  432
1263,  911, 1333, 1364, 1257
1264, 1180,  911, 1257,  591
1265, 1394, 2700, 2820,  598
1266,  913,  914, 1173,  598
1267,  912,  913,  598, 2820
1268,  597, 1173,  914,  915
1269,  599, 2715,  916, 2700
1270,  863,  866,  916, 2715
1271, 1255, 1177,  917,  542
1272, 1123,  801,  128, 1124
1273,  915, 1184, 1171,  597
1274,  433, 1190,  922,  923
1275,  410, 1185,  924,  929
1276,  539, 1178,  925, 2683
1277,  538, 1295,  926,  927
1278,  539, 2683,  926, 1295
1279, 1187,  928,  887,  931
1280,  537, 1450,  928, 1187
1281,  930, 1186, 1167, 2800
1282,  931, 1162, 1189, 1187
1283,  932, 1571,  937,  848
1284, 1168,  854,  435, 2797
1285, 1358, 1269, 1740,  357
1286,  938,  934, 1192,  437
1287,  939,  935, 1170, 2798
1288, 1464,  464, 2799, 1264
1289,  463, 1571,  932, 1459
1290, 1571, 1192,  934,  937
1291, 1239, 1193,  940, 1113
1292, 1613, 1514, 1894, 1779
1293, 1779,  941, 1287, 1613
1294, 1023,   41,  707, 1044
1295, 1024,  942, 1194,  205
1296,  726,  725,  954,  943
1297, 1021, 1055, 2693,  657
1298, 1305,  944,  952,  660
1299,  953,  944, 1305,  659
1300, 1319,  945,  966,  661
1301,  946,   33,  698,  949
1302,  960,  948, 1195,  315
1303, 1871,  950,  951,  274
1304, 1029,   35,  701, 1039
1305,  725,   58,  953,  954
1306,  955,  343, 1142,  957
1307,  955,   30,  695,  962
1308,  964,  959,  721,   54
1309, 1567, 1646,  662, 2784
1310, 1467, 1554,  315, 1384
1311, 1393,  329, 1487, 1281
1312,  960,  315, 1554,  963
1313,  663,  964,  956, 1284
1314,  964,  663, 1483,  959
1315, 1301,  967, 1104,  612
1316, 1105,  967, 1301,  611
1317, 1323,  968, 1103,  613
1318,  970, 1107, 1879,  609
1319,  971, 1108, 1302,  608
1320,  972, 1109, 1322,  607
1321, 1544, 1648,  607, 1461
1322, 2066, 2782, 1782, 2026
1323,  112,  783,  974, 1112
1324, 1050,  714,   48, 1035
1325, 2787, 2786, 1878, 1944
1326,  605, 1902, 1054,  976
1327,  976,   52,  719, 2776
1328,  773,  102, 1101,  978
1329, 1540, 1636,  614, 1708
1330,  772,  101, 1100,  979
1331, 1101,  615, 1901,  978
1332,  771,  100, 1099,  980
1333,  770,   99, 1098,  981
1334, 1099, 2781, 2312,  980
1335,  769,   98, 1097,  982
1336,  768,   97, 1096,  983
1337, 1533, 1642,  619, 1455
1338,  767,   96, 1095,  984
1339,  766,   95, 1094,  985
1340,  765,  764, 1093,  986
1341, 1308,  987, 1091,  624
1342, 1092,  987, 1308,  623
1343, 1321,  988, 1090,  625
1344,  760,   90, 1088,  990
1345, 1528, 1623,  626, 1706
1346,  759,   89, 1087,  991
1347, 1088,  627, 1898,  990
1348,  758,   88, 1086,  992
1349,  757,   87, 1085,  993
1350, 2200, 2421, 2780, 2808
1351,  756,   86, 1084,  994
1352, 1075,  639, 1903, 1004
1353,  745,   76, 1073,  996
1354, 1943, 2001,  640, 1869
1355,  755,   85, 1083,  997
1356, 1532, 1643,  631, 1452
1357,  754,   84, 1082,  998
1358,  753,   83, 1081,  999
1359,  752,  751, 1080, 1000
1360, 1307, 1001, 1078,  636
1361, 1079, 1001, 1307,  635
1362, 1320, 1002, 1077,  637
1363,  637, 1647, 1551, 1463
1364, 1075, 1004,  747,   78
1365, 1551, 1647,  638, 1711
1366,  744,   75, 1072, 1005
1367, 1073, 2779, 2100,  996
1368,  743,   74, 1071, 1006
1369,  742,   73, 1070, 1007
1370, 1518, 1644,  643, 1447
1371,  741,   72, 1069, 1008
1372,  740,   71, 1068, 1009
1373,  739,  738, 1067, 1010
1374, 1303, 1011, 1065,  648
1375, 1066, 1011, 1303,  647
1376, 1318, 1012, 1064,  649
1377,  734,   66, 1062, 1014
1378, 1063,  650, 1675, 1013
1379,  733,   65, 1061, 1015
1380,  732,   64, 1060, 1016
1381, 1061,  652, 2136, 1015
1382,  731,   63, 1059, 1017
1383, 1496, 1645,  653, 1339
1384,  730,   62, 1058, 1018
1385, 1761, 1821,  654, 1342
1386,  729,   61, 1057, 1019
1387,  728,   60, 1056, 1020
1388, 1055, 1021,  727,   59
1389, 1022,   42,  708, 1045
1390, 1039,  260, 1875, 1029
1391, 1785, 1800,  344, 1766
1392, 1030,   43,  709, 1046
1393, 1535, 1641,  359, 1456
1394, 1031,   44,  710, 1047
1395, 1330, 1047, 2794,  375
1396,   45,  711, 1048, 1032
1397, 1048, 1033, 1312, 2794
1398, 1033,   46,  712, 1049
1399, 1051,  715,   49, 1036
1400, 1052,  716,   50, 1037
1401, 1053,  717,   51, 1038
1402,  260, 1039, 1028, 1314
1403,  246, 1040, 1027, 1329
1404,  233, 1041, 1026, 1634
1405,  219, 1042, 1025, 2788
1406, 1043, 1024,  205, 1749
1407, 1022,  164, 1550, 1044
1408, 1610, 1671,  647, 1506
1409,  738,   70, 1066, 1067
1410, 1075,  995, 2001,  639
1411,  751,   82, 1079, 1080
1412,  764,   94, 1092, 1093
1413,  777,  106, 1105, 1106
1414, 1110,  972,  607, 1648
1415, 1111,  973,  606, 2782
1416, 1112,  974, 2066,  605
1417, 1115,  788,  118, 1117
1418, 1230, 1231,  604, 1408
1419, 1117,  118,  787, 1116
1420, 1114, 1115,  604, 1231
1421, 1712,  603, 2812, 1576
1422, 1203, 1202, 1119, 1118
1423, 1256, 1201, 1202,  593
1424, 1121, 1120, 1201, 1200
1425, 1199, 1200, 1246, 2815
1426, 1124, 1122, 1199, 1198
1427, 1128, 1125, 1317,  163
1428, 1131, 1126, 1564,  247
1429,    9,  670, 1132, 1127
1430, 1476, 1564,  261, 1387
1431,  670,   10, 1128, 1132
1432, 1134, 1129,  672,   11
1433,  667,    8, 1133, 1130
1434,    8,  668, 1131, 1133
1435,  333, 1137, 1152, 1214
1436, 1153, 1138, 1565,  331
1437,  682,   19, 1160, 1140
1438, 1143, 1142,  343, 1208
1439, 1144, 1143, 1208, 2777
1440, 1159, 1146,   18,  680
1441,  340, 1560, 1473, 2832
1442, 1158, 1148,   21,  683
1443,  338, 1755, 1148, 1158
1444,  336, 1150, 1149, 2050
1445, 2218, 1151, 1157, 2785
1446,  335, 1135, 1151, 2218
1447,   28,  692, 1154, 1206
1448,  332, 1156, 1155, 1213
1449, 1472, 1565,  332, 1388
1450, 1150,  336, 2785, 1157
1451, 1158, 1147, 1211,  338
1452, 1159, 1145, 1212,  341
1453, 1473, 1560,  341, 1651
1454, 1140, 1160, 1207,  339
1455,  334, 1136, 1161, 1209
1456, 1713, 1238, 1738,  534
1457,  500, 1196, 1268, 1164
1458,  498, 1300, 1165, 1226
1459, 1269, 1166,  177, 1362
1460, 1243, 1291,  178, 1174
1461, 1291, 1274, 2803,  850
1462, 1167, 1253, 1380, 2800
1463, 2708,  930, 2800, 1437
1464, 2797, 1252, 2839, 1168
1465, 2133, 1168, 2839,  461
1466, 1424, 1341, 1423, 1340
1467, 1744, 2814, 1297,  492
1468,  596, 2806, 1171, 1184
1469,  494, 1172, 1464, 1413
1470, 1173, 1261, 1294,  598
1471, 1174, 1416, 1337, 1243
1472, 1364,  590, 1336, 1257
1473, 1239, 1176,  372, 1193
1474, 1254, 1375,  589, 2899
1475, 1392, 1315, 1178, 1290
1476,  540,  925, 1178, 1315
1477, 1179,  373, 2834, 1245
1478, 1241, 2833, 1245,  390
1479,  501, 1164, 1268, 1181
1480, 2707, 1189, 1181,  536
1481, 1676, 1488, 1429, 1368
1482,  432, 1595, 1512, 1420
1483, 1215, 1184,  921, 1123
1484, 1368, 1429, 1185, 1263
1485, 1240,  316, 1360,  330
1486,  316, 1167, 1186, 1360
1487,  537, 1187, 1189, 2707
1488,  434,  922, 1190, 1298
1489, 1251, 1191,  302, 1520
1490, 1285,  463, 1390, 1427
1491, 2834, 2907, 1402, 1245
1492,  940, 1193, 2834,  373
1493, 1242, 1197,  547, 2791
1494, 2815, 1278, 1198, 1199
1495, 1215, 1198, 1278, 2817
1496,  594, 1200, 1201, 1256
1497, 1197, 1242, 1203, 1118
1498, 1202, 1203, 1280,  593
1499, 1250, 1211,  339, 1383
1500,  342, 1391, 1479, 1273
1501,  596, 1184, 1215, 2817
1502, 1220, 1217, 1275,  220
1503,  665,    6, 1221, 1219
1504,    6,  666, 1220, 1221
1505, 1222,  465, 1265, 1292
1506, 1223, 1401, 2783, 1229
1507, 1223,  145,  819, 1228
1508,  498, 1927, 1844, 1742
1509, 1227,  497, 1927, 1224
1510, 1223, 1228, 1282, 1401
1511,  497, 1227, 1229, 2783
1512,  115, 1230, 1284,  116
1513, 1232,  602, 1764, 1216
1514, 1234,  601, 1575, 1233
1515, 1236,  120,  790, 1237
1516, 1357, 1584,  600, 1655
1517, 1236,  600, 1584, 1235
1518,  863, 2715, 2792, 1237
1519, 1713,  534, 2116, 1652
1520, 1196, 1238, 1713,  535
1521,  391, 1247, 1241, 1508
1522, 1274, 1291, 1331, 1417
1523, 1513, 1244, 1359, 2986
1524, 1335, 1288, 1244, 1513
1525, 1431,  594, 1339,  653
1526, 1672,  462, 2133, 2882
1527, 2133,  462,  869, 1168
1528,  358,  933, 1358, 1248
1529, 1299, 1248, 1670,  371
1530, 1382, 1249, 1468,  320
1531,  334, 1209, 1249, 1382
1532, 1557, 1250, 1469,  324
1533, 1462, 1251, 1520,  303
1534,  275, 1191, 1251, 1381
1535,  461, 2839, 1252, 1510
1536,  435,  920, 1377, 2797
1537, 1380, 1253,  317, 1448
1538, 1729, 2899,  589, 2856
1539, 1175, 1254, 2899, 1729
1540, 1470, 1258, 1382,  320
1541, 1385, 1258, 1470,  319
1542, 1259, 2832, 1474, 2878
1543, 1171, 1293, 2819,  597
1544, 1306, 2805, 1757, 2778
1545, 2945, 1262, 1443,  287
1546, 1466, 1384, 1262, 2945
1547,  493, 1413, 1464, 1264
1548, 2799, 2798, 2814, 1264
1549, 1292, 1265, 1407,  495
1550, 1475, 1266, 1454,  301
1551, 1387, 1266, 1475,  262
1552, 1471, 1267, 1385,  319
1553, 1388, 1267, 1471,  318
1554, 1343, 1362,  177, 1274
1555, 1424, 2690, 1169, 1341
1556, 1340, 1188, 1270, 1424
1557, 1271, 1210,  331, 2842
1558, 1271, 1758, 2826, 1240
1559, 1272,  409, 2923, 1435
1560, 1561, 1273, 1479, 1491
1561, 2803, 1274,  177,  903
1562, 1607, 1406, 1277,  220
1563, 1432,  595, 1342,  654
1564, 1480, 1279, 1562, 1490
1565, 1395, 1279, 1480,  235
1566, 2843, 1611, 1500, 1496
1567, 1487, 1391,  342, 1281
1568, 1283, 1334,  496, 1282
1569, 1401, 1282,  496, 2855
1570,  495, 1334, 1283, 1292
1571, 1285, 1427, 2897, 1400
1572, 1548, 1286, 1477, 1489
1573,  460, 1298, 1398, 1746
1574, 1295, 1451, 2875,  539
1575, 2886, 1392, 1290, 2887
1576, 1399,  596, 2817, 2818
1577,  655, 1327, 1409, 2806
1578, 1294,  657, 1394,  598
1579, 1397, 1451, 1295,  538
1580, 1296, 1412, 1402, 2907
1581,  460, 1415, 2838, 1298
1582, 1974, 1884, 1389,  372
1583,  372, 1176, 1299, 1974
1584, 1300,  498, 1742, 1842
1585, 1345, 1303,  648, 1433
1586, 1346, 1304,  645, 1748
1587, 1357, 1305,  660, 1453
1588, 1757, 2805, 1294, 1261
1589, 1356, 1307,  636, 1446
1590, 1347, 1308,  624, 1436
1591, 1349, 1309,  621, 1626
1592, 1348, 1310,  633, 1624
1593, 1354, 1311,  466, 1444
1594, 1312,  394, 1628, 1350
1595, 1353, 1313,  289, 1602
1596, 1351, 1314,  246, 1441
1597, 1363, 1425, 2868, 1336
1598, 1343, 1274, 1417,  176
1599, 1759, 1332, 1428,  583
1600, 1332, 1759, 2885, 1770
1601, 1335, 1513, 3000, 1410
1602, 1288, 1335,  459, 1398
1603, 1426, 1337, 1416, 2804
1604, 1337,  179, 2877, 1243
1605, 1338, 1498, 2480, 1289
1606, 1496, 1339, 1430, 2843
1607, 1246, 1431, 1761, 1342
1608, 1423, 1341, 1422,  408
1609, 1341, 1169,  391, 1422
1610, 1486, 1428,  536, 1344
1611, 1345, 1729, 2856, 1506
1612, 1434, 1346, 1503,  587
1613, 1519, 1621, 1347,  567
1614, 2809, 1521,  575, 1438
1615, 2795, 1522,  563, 1439
1616, 1314, 1351, 1627,  260
1617, 1352, 1525, 2859, 1629
1618,  611, 1301, 1352, 1629
1619,  288, 1313, 1353, 1443
1620,  438, 1311, 1354, 2821
1621, 1445, 2790, 1530,  551
1622, 1302, 1355, 2790,  608
1623, 1545, 1649, 1356,  579
1624, 2791,  547,  855,  905
1625, 1546, 1361, 1381,  276
1626, 1454, 1361, 1546,  301
1627, 1362, 1499, 1740, 1269
1628, 1363, 1318,  649, 1425
1629,  586, 1485, 1392, 2886
1630, 1447, 1365, 1485,  586
1631, 1529, 1366, 1449,  568
1632, 1366, 1529, 1658, 1436
1633, 1795, 1367, 1438,  575
1634, 1367, 1531, 1452,  631
1635, 1883, 1676, 1368, 1263
1636, 1796, 1369, 1439,  563
1637, 1369, 1534, 1455,  619
1638, 1536, 1370, 1440,  376
1639, 1370, 1536,  360, 1456
1640, 1538, 1371, 1457, 2938
1641, 1371, 1538, 2930, 1441
1642, 1539, 1372, 1458,  556
1643, 1442, 1372, 1539,  555
1644, 1444, 1373, 1541,  467
1645, 1543, 1374, 1445,  551
1646, 2789, 1374, 1543, 1773
1647, 1375, 1177, 1378,  589
1648, 1376, 1552, 2858, 1446
1649, 1377,  920,  885, 2796
1650, 1411, 1887, 1667, 1610
1651, 1465, 2813, 1566, 1379
1652, 1453, 1379, 1566,  601
1653,  314, 1547, 1384, 1466
1654, 1474, 1386,  326, 1495
1655, 1558, 1476, 1387,  262
1656, 1758, 1271, 2842, 2848
1657, 1427, 1390, 1834,  491
1658, 1390,  463, 1459, 1516
1659, 1479, 1391,  328, 1599
1660,  658, 1955, 2018, 2693
1661, 1607, 1405, 1662,  221
1662, 1549,  190, 1396, 1478
1663, 1451,  585, 1620, 2887
1664,  459, 2967, 1746, 1398
1665,  595, 1432, 2818, 2817
1666,  492, 1297, 1400, 2897
1667, 2855, 1421, 2783, 1401
1668,  390, 1245, 1402, 2694
1669, 1403, 1435, 1418,  430
1670, 3056,  430, 1511, 3057
1671, 1739, 1404, 1482,  207
1672, 1416,  192, 1832, 2804
1673,  220, 1275, 1405, 1607
1674,  207, 1482, 1406, 1493
1675, 2125, 1509, 1407,  494
1676, 1569, 1408, 1576, 2812
1677, 2806, 1409, 1293, 1171
1678, 1505, 1410, 3037, 1606
1679,  459, 1335, 1410, 1505
1680, 1411, 1610, 1506, 2856
1681, 1747, 1414, 1779, 1894
1682, 1242, 2791, 2816,  592
1683, 1415,  460, 2905, 1604
1684, 1484, 1417, 1331, 2877
1685, 1418, 1609, 1511,  430
1686, 1499, 1419, 1968, 1574
1687, 1685, 3038, 3000,  458
1688, 2855,  496, 2919, 2920
1689, 1760, 1421, 2904, 2857
1690, 1435, 2923, 1572,  429
1691, 1423, 1572, 2923, 1340
1692, 1612, 1514, 2868, 1425
1693,  179, 1337, 1426, 2876
1694,  193, 2083, 1585, 2836
1695, 1427,  491, 1570, 2897
1696,  393, 2135, 1429, 1488
1697,  654, 2680, 2818, 1432
1698, 1729, 1345, 1433,  590
1699, 1434,  587, 1485, 1365
1700, 1338, 1503, 2829, 1498
1701, 1418, 1435,  429, 1684
1702, 1531, 1367, 1795, 1582
1703, 1534, 1369, 1796, 1581
1704,  245, 1590, 2913, 2930
1705, 1620,  586, 2886, 2887
1706, 1448, 2901, 2825, 1380
1707, 1625,  574, 1804,  573
1708, 1630,  562, 1806,  561
1709, 1632, 1535, 1456,  360
1710, 1639,  503, 1460, 1542
1711, 1461,  607, 1374, 2789
1712, 1515, 1462,  303, 2679
1713, 1567, 2784, 1654, 2811
1714, 1466, 2946, 1774,  314
1715, 1554,  329,  961,  963
1716, 1468,  321, 1502, 3024
1717,  325, 1501, 1469, 2879
1718, 1561, 2847, 1651,  341
1719, 1477,  190, 1597, 3022
1720, 1550,  191, 1023, 1044
1721, 1549, 1478, 1637,  165
1722, 1762, 1653, 1481,  531
1723, 1493, 1406, 1607,  221
1724,  176, 1417, 1484, 2228
1725, 2876, 1507, 2915,  179
1726, 2125,  494, 1413, 2046
1727, 1553, 1486, 1568, 2874
1728, 1391, 1487, 1660,  328
1729, 1548, 1489,  204, 1600
1730, 1599,  328, 1547,  314
1731, 2045, 1491, 1665, 2894
1732, 3069, 3061, 1492, 1797
1733, 1493,  221, 2936, 1710
1734,  262, 1475, 1494, 1603
1735, 1701, 1494, 1798, 2993
1736, 1678, 1497, 1596,  406
1737, 1792,  390, 2694, 1794
1738, 1990, 2823, 1919, 2031
1739,  541, 2480, 1498, 1990
1740,  357, 1740, 1499, 1574
1741, 2890, 2889, 1280,  592
1742, 1704, 2961, 1615,  311
1743, 2961, 1922, 1501,  325
1744, 1705, 1616, 3024, 1502
1745, 1346, 1748, 2829, 1503
1746, 2932, 1507, 2876, 1504
1747, 1735, 2967, 3032,  487
1748, 2915, 1507, 2976, 2954
1749, 1741, 1508, 1792, 2040
1750, 1917, 2944, 2943, 1910
1751, 2950, 1972, 1604, 2905
1752, 3074, 3057, 1511, 2085
1753, 1512, 1681, 2977, 1605
1754, 3000, 1513, 2986,  458
1755, 1612, 1669, 1894, 1514
1756,  276, 1462, 1515, 1617
1757, 1555, 1517,  317, 2900
1758, 1618, 1517, 2987, 2988
1759, 1644,  642, 1006, 1071
1760, 1594, 1519,  567, 1687
1761,  566, 1621, 1519, 2008
1762, 1520, 1437, 2825,  303
1763,  576, 1593, 1521, 2862
1764, 1591, 1523, 2892, 2895
1765,  376, 1440, 1523, 1591
1766, 1524, 2913, 1590, 2964
1767,  259, 1627, 1524, 2010
1768, 2951, 1589, 2859, 1525
1769, 3017, 1526,  290, 1914
1770, 1527,  467, 2929, 1588
1771, 2903, 1631, 1527, 1588
1772, 1528, 1706, 2861, 1622
1773, 1529, 2934, 1583, 1658
1774, 2881, 1530, 2864,  552
1775, 1452, 1531,  574, 1625
1776, 1643,  630,  994, 1084
1777, 1642,  618,  982, 1097
1778, 1455, 1534,  562, 1630
1779, 1641,  344, 1030, 1046
1780, 1692, 1775,  376, 1591
1781, 1537, 1707, 1633,  232
1782, 1538, 2938, 3021, 1580
1783,  245, 2930, 1538, 1580
1784, 1635, 1540, 1708,  557
1785, 1541,  503, 1578, 2928
1786, 1638,  502, 1037, 1053
1787, 1542, 1709,  549, 1639
1788, 1648,  606,  973, 1110
1789, 1586, 1545,  579, 1697
1790, 1649, 1545, 2039,  578
1791,  328, 1660, 2911, 1547
1792, 1650, 1551, 1711, 2867
1793, 1552,  580, 1577, 2858
1794, 2827, 1553, 2874,  582
1795, 1758, 2900, 1733, 2826
1796, 2003, 2940, 2099, 2140
1797, 1656, 1557,  324, 1743
1798, 1562, 2810, 2824, 1490
1799, 1559, 1386, 1473, 1651
1800, 1560, 1146, 1159,  341
1801,  327, 1559, 1651, 2847
1802, 1562,  247, 2801, 2810
1803, 1334,  495, 1481, 1653
1804, 1584,  601, 1234, 1235
1805, 1564, 1126, 1127,  261
1806, 1565, 1138, 1156,  332
1807, 1575,  602, 1232, 1233
1808, 2784, 1569, 2812, 1654
1809, 2116,  534, 1985, 2841
1810,  582, 2874, 2873, 1717
1811,  662, 1483, 1569, 2784
1812,  492, 2897, 1570, 1750
1813, 1572, 1657, 1619,  429
1814, 1574, 1780, 1670,  357
1815, 1712,  604, 1115, 1117
1816, 2858, 1577, 1697,  579
1817, 1835, 1577,  580, 1650
1818, 1579, 1830,  509, 1691
1819,  555, 1539, 1579, 1691
1820, 1689, 1581, 1796,  563
1821, 1682, 1581, 1807,  516
1822, 1688, 1582, 1795,  575
1823, 1680, 1582, 1805,  528
1824, 2934, 1679, 2985, 1583
1825, 2837, 2836, 1585, 2077
1826, 2195, 1975, 2077, 1585
1827, 1849,  578, 2039,  532
1828,  551, 1530, 1587, 1694
1829, 2012, 1589, 1813,  508
1830, 2859, 1589, 2012,  554
1831,  245, 1690, 3006, 1590
1832, 1911, 1812, 1591, 2895
1833, 1809, 1592, 1909,  518
1834, 1592, 1809, 1689,  563
1835, 1910, 2943, 1593,  576
1836, 1488, 1676,  431, 1595
1837, 1696, 1597,  190, 1549
1838, 1597, 1696, 1850, 3022
1839,  235, 1698, 2935, 1662
1840,  235, 1480, 1598, 1698
1841, 1491, 1479, 1599, 1665
1842,  205, 1548, 1600, 1749
1843, 2988,  304, 1763, 1618
1844, 1736, 1602,  289, 1871
1845,  486, 1856, 1606, 3037
1846, 3032, 1505, 1606, 1745
1847, 2442, 1772, 1683, 1777
1848, 1883, 1772,  431, 1676
1849, 1671, 1610, 1667,  646
1850, 2889, 2890, 1611, 2843
1851, 1789, 1663, 2853, 2854
1852, 1669, 1612, 1675,  650
1853, 1514, 1613,  591, 2868
1854, 1614,  287, 1526, 3017
1855, 1816, 1702, 3017, 1914
1856,  325, 2918, 1615, 2961
1857, 3025, 1905, 3068, 1664
1858, 3025, 3024, 1616, 1905
1859, 1731, 1686, 1619,  428
1860, 1621,  566, 1723,  623
1861, 2893, 1802, 1622, 2861
1862, 1623,  989, 1089,  626
1863, 1627,  259, 1722,  260
1864, 2892, 1628,  395, 2895
1865, 1721, 1629, 2859,  554
1866, 2821,  439, 1720,  438
1867,  218, 1828, 1633, 1707
1868, 1634, 1026, 1042,  219
1869, 1829, 1635,  557, 1978
1870, 1636,  977, 1102,  614
1871, 1668,  164, 1800, 1785
1872,  550, 1640, 1461, 2789
1873,  549, 1709, 2849, 1640
1874, 1645, 1016, 1060,  653
1875, 1646,  958,  965,  662
1876, 1647, 1003, 1076,  638
1877, 1948, 1719,  578, 1866
1878, 2841, 1650, 2867,  581
1879,  603, 1764, 1654, 2812
1880, 2813, 2811,  602, 1575
1881,  338, 1557, 1656, 1755
1882,  428, 1619, 1657, 2156
1883, 1715,  326, 1714, 1846
1884, 1717, 2873, 1659,  581
1885, 1910,  576, 2863, 1917
1886, 1716, 2931, 1823, 1858
1887, 1791, 1972, 1882, 2956
1888, 1663, 1500, 1611, 2853
1889, 3068, 1905, 2006,  305
1890,  319, 1470, 1664, 1797
1891, 1889, 2045, 2894,  313
1892, 1798, 1666, 1904, 2993
1893,  301, 1546, 1666, 1798
1894, 2822, 1857, 1887, 2835
1895, 1766,  345, 1881, 1785
1896, 2882, 2133,  461, 1673
1897, 1673,  489, 2048, 2882
1898, 1793,  389, 1389, 1884
1899, 1678, 1769,  407, 1794
1900, 1802, 1679,  568, 1622
1901, 1803, 2985, 1962,  522
1902, 1973, 2158, 2994,  527
1903,  457, 2977, 1681, 2442
1904, 1682, 2159, 1806,  562
1905, 1777, 1683,  456, 3029
1906, 1772, 2442, 1681,  431
1907, 1684, 1686, 3064,  455
1908, 2047, 1808,  521, 2104
1909,  245, 1580, 3021, 1690
1910, 3049, 2043, 3007, 1811
1911, 1813, 1691,  509, 2997
1912, 1775, 1692, 1994, 2966
1913, 1693, 2929, 2928, 1578
1914, 1845, 1695,  189, 1921
1915, 1916,  203, 1827,  204
1916, 1850, 1696, 1931, 2952
1917, 2927, 1818, 1598, 1699
1918, 2935, 1698, 1819, 2978
1919, 1837, 1699, 1817,  249
1920, 1843, 3036, 3061, 3069
1921, 2990,  304, 3036, 1843
1922, 1558, 1700,  248, 1756
1923,  300, 1848, 1701, 2993
1924, 2168, 2912, 2431,  286
1925, 2901, 2679,  303, 2825
1926, 2055, 2990, 1843, 2069
1927, 1854, 1704,  311, 1928
1928, 1841, 1922,  310, 1979
1929, 1855, 1705,  307, 2052
1930,  306, 1616, 1705, 1855
1931,  548, 1902, 2026, 1709
1932,  207, 1493, 1710, 1920
1933, 1846,  327, 1889, 2917
1934,  312, 1852, 2960, 1715
1935,  531, 1661, 1716, 1762
1936,  659, 1655, 1718, 2017
1937, 2793, 1867, 1955, 1718
1938, 1944, 1878, 1720, 1864
1939,  611, 1629, 1721, 1877
1940, 1722, 1938, 1875,  260
1941, 1859, 1723,  566, 1933
1942, 1784,  218, 1707,  219
1943, 1828, 1725,  232, 1633
1944, 1829, 1726,  556, 1635
1945, 2096, 1727,  503, 1639
1946, 1831, 1727,  504, 2033
1947, 1728, 1836, 1577, 1835
1948,  533, 1836, 1728, 1954
1949, 1397, 1730, 2828, 1778
1950, 1731,  428, 2970, 1824
1951, 2219, 3063,  454, 3058
1952, 1790, 1732,  532, 2039
1953, 2857, 2904, 1732, 1790
1954, 1253, 1733, 2900,  317
1955, 2906, 1734,  583, 1428
1956, 2027,  582, 1717, 1781
1957, 1735,  487, 1825,  488
1958,  273, 1950, 1938, 1861
1959, 1853, 1739,  207, 1920
1960, 1739,  193, 1832, 1404
1961, 1815, 1741, 2040, 2213
1962,  408, 1422, 1741, 1815
1963, 1742, 1844, 1838,  533
1964, 1841, 1743,  324, 1922
1965, 1743,  323, 1840, 1656
1966, 1826, 1744,  492, 1750
1967, 3032, 1745, 1833,  487
1968, 2967,  459, 1505, 3032
1969, 1747, 2854, 2816, 1414
1970, 1847, 2030, 1857, 2822
1971, 2829, 1748,  588, 2823
1972, 1952, 1948, 1866,  577
1973, 1624, 1751, 2863,  576
1974, 1873,  622, 1935, 1752
1975,  564, 1626, 1752, 2866
1976, 1876, 1753,  394, 1049
1977, 2831, 2830, 2869, 2870
1978, 1754,  609, 1879, 1946
1979, 2810, 2801, 1756, 2824
1980, 1260, 1757, 1261, 2819
1981, 2900, 1758, 2848, 1555
1982, 1759,  583, 1771, 2885
1983, 2884, 2885, 1771,  584
1984, 1563, 1762, 1849,  532
1985, 1763, 2948, 2679, 2901
1986, 1786, 1767, 1900, 2845
1987, 1787, 1768, 1899, 2851
1988, 1769, 1983, 2142,  407
1989, 2884, 2871, 1770, 2885
1990, 1771, 2019, 2049,  584
1991, 1608, 1683, 1772, 1883
1992, 1893, 1773, 1996,  504
1993,  550, 2789, 1773, 1893
1994, 1536,  376, 1775, 2922
1995,  537, 1770, 2871, 1450
1996, 1776, 1976, 2078,  175
1997, 2086, 1777, 3029, 2701
1998,  457, 2442, 1777, 2086
1999, 1778, 1992, 1895,  585
2000, 2217, 1934, 1780, 1912
2001,  371, 1670, 1780, 1934
2002,  582, 2027, 1868, 2827
2003, 1709, 2026, 1782, 2849
2004, 1902,  548, 1038, 1054
2005, 2028, 1783, 1901,  615
2006, 1783, 2028, 2151, 2061
2007,  218, 1784, 1724, 1960
2008,  617, 2688, 1786, 1964
2009,  629, 2689, 1787, 1963
2010, 2029, 1788, 1898,  627
2011, 1788, 2029, 2148, 2062
2012, 2854, 1747, 1851, 1789
2013, 2942, 1791, 2956,  489
2014, 1510, 1604, 2942, 1573
2015,  407, 2040, 1792, 1794
2016, 2084, 1984,  406, 1596
2017, 1497, 1678, 1794, 2694
2018, 3068, 3069, 1797, 1664
2019, 1799, 1735,  488, 2949
2020, 2950, 2905, 1799, 2949
2021, 3014, 3044, 3001, 2025
2022, 3003, 1801, 3044, 3014
2023, 1991, 2933, 2893,  569
2024,  522, 1926, 2036, 1803
2025,  521, 1687, 1803, 2036
2026, 1804,  574, 1680, 1907
2027, 2165, 1807,  517, 2269
2028,  564, 1909, 1592, 2865
2029, 2354, 1809,  518, 2318
2030, 2046, 1915,  529, 1810
2031, 2984, 2010, 2965, 3015
2032, 2430, 2963, 2474, 2484
2033, 1941, 2012,  508, 2925
2034, 2013,  440, 2075, 1945
2035, 1693, 1814, 1588, 2929
2036, 2881, 1913, 1587, 1530
2037,  469, 2495, 2485, 2419
2038, 2156, 1988, 2970,  428
2039, 2294, 2338,  291, 2441
2040,  248, 1700, 1820, 2947
2041, 1818, 2927, 1956,  222
2042, 1908,  222, 2058,  208
2043, 1930, 1820,  263, 1925
2044,  249, 1817,  248, 2947
2045, 2940, 2003, 2170, 1924
2046, 1821, 1017, 1059,  654
2047,  646, 1857, 2030, 1822
2048, 2863, 1751, 1952,  577
2049, 1858, 1823,  577, 1866
2050, 1731, 1824,  454, 2267
2051, 2999, 1989, 2970, 1988
2052, 2101, 1825, 2038, 2097
2053,  493, 1744, 1826, 1915
2054,  218, 1960, 1977, 1828
2055,  231, 2035,  244, 3050
2056,  510, 2034, 1830, 2959
2057, 1997,  549, 1640,  550
2058, 2804, 1832,  193, 2836
2059,  523, 2038, 1833, 3002
2060, 1970, 1957, 1834, 2921
2061, 2116, 2841,  581, 1659
2062, 2927, 1699, 1837, 1918
2063, 2060, 1999, 1837,  249
2064, 2872, 1838, 2857, 1790
2065, 2994, 1737, 1957,  527
2066, 1961, 1840,  323, 2037
2067, 1842,  534, 1738, 1300
2068,  497, 1760, 1844, 1927
2069, 2057, 1695, 1845, 3042
2070,  312, 2917, 1892, 1995
2071,  263, 1701, 1848, 1925
2072, 2056, 2002, 1848,  300
2073, 1953, 3011, 2989, 2110
2074, 3022, 1850, 3011, 2991
2075, 1851, 1669,  650, 1923
2076, 1852, 2132, 1928,  311
2077,  193, 1739, 1853, 2083
2078, 2053, 1854, 2004,  283
2079, 1855, 2005, 1929,  306
2080,  522, 1962, 2968, 1906
2081, 1857,  646, 1667, 1887
2082, 2009, 1936, 2866, 1860
2083, 1860, 2866, 1752, 1935
2084, 2914, 1862,  413, 2011
2085, 1941, 1863,  554, 2012
2086, 1939, 1944,  413, 1862
2087, 1865, 2014, 1947, 2840
2088, 1754, 1865, 2840,  552
2089, 1236, 1867, 2793,  600
2090, 1955, 1867,  599, 2018
2091, 2015, 1951, 1870,  273
2092, 1938, 1950,  274, 1875
2093, 1932, 1935,  622, 1872
2094, 1876,  412, 1939, 2830
2095, 1878, 2786,  438, 1720
2096, 2081, 1971, 1882, 2157
2097, 1952, 1751, 1874,  634
2098, 2863,  577, 1823, 1917
2099, 2896,  371, 1934, 2202
2100, 1975, 1886,  180, 2077
2101, 2076,  181, 1886, 1975
2102, 3057, 3074,  456, 1683
2103, 2180,  485, 2701,  484
2104, 2045, 1889,  327, 2847
2105, 2917, 1889,  313, 1892
2106, 2072, 1967,  388, 1987
2107, 2168, 2094, 1892,  313
2108, 1896, 1605, 2977, 3001
2109, 1989, 2999, 2350,  453
2110, 1965, 2909, 2851, 1899
2111, 1900, 1966, 2941, 2845
2112, 2027, 1903,  639, 1868
2113,  300, 2993, 1904, 2270
2114, 3069, 3068,  305, 1843
2115, 3002, 1906, 2968,  523
2116, 1745, 1906, 3002, 1833
2117,  208, 1920, 2979, 1908
2118, 1908, 2979, 2978, 1819
2119, 2870, 2869, 1940, 1911
2120, 1812, 1911,  396, 2474
2121,  356, 2016, 1912, 1968
2122, 2217, 1912, 2016, 2487
2123, 1913, 2840, 1947, 2880
2124, 2908, 2880, 2648,  505
2125, 1914,  291, 2338, 1816
2126,  203, 1916, 1695, 2057
2127, 1917, 1823, 2931, 2944
2128,  530, 2943, 2944, 1661
2129, 2822, 2031, 1919, 1847
2130, 2121, 2036, 1926, 1998
2131, 2036, 2121, 2104,  521
2132, 3106, 2283,  283, 2004
2133, 1929,  279, 3123, 3099
2134, 2947, 1820, 1930, 2112
2135, 1931, 2898, 2024, 2952
2136, 2910, 2883, 2071,  519
2137, 2009, 1860,  565, 2023
2138,  518, 1909, 1936, 2317
2139, 1937,  259, 2010, 2984
2140, 2984, 2073, 2022, 1937
2141, 1950,  273, 1870, 1736
2142, 1911, 1940, 2962,  396
2143, 1941, 2925, 2074, 2021
2144, 1946,  553, 1865, 1754
2145,  413, 1944, 1864, 2020
2146, 1945,  439, 2903, 2013
2147, 2014, 1865,  553, 2021
2148, 2880, 1947,  506, 2648
2149,  634, 1880, 1948, 1952
2150, 1980, 1949,  309, 2184
2151,  291, 1914, 1951, 2319
2152,  189, 2991, 3011, 1953
2153, 1956, 2927, 1918, 2103
2154, 1973,  527,  526, 2131
2155, 1958, 2958, 3004, 1982
2156,  217, 1981, 1959, 1977
2157,  337, 1840, 1961, 2050
2158, 2108, 1964, 2846,  560
2159, 1973, 1965, 2079, 2158
2160, 1965, 1973, 2131, 2909
2161,  561, 2080, 1966, 1900
2162, 2080, 2130, 2941, 1966
2163, 1967, 2072, 2153, 2216
2164, 1968, 1419, 2065,  356
2165, 2119, 2972,  203, 2057
2166, 1971,  525, 2169, 2916
2167, 1970,  526,  527, 1957
2168, 2955, 2175, 2185, 2115
2169, 2956, 1882, 1971, 2916
2170, 1974, 1299,  371, 2896
2171, 2070, 1976,  181, 2150
2172,  174, 2078, 1976, 2070
2173,  557, 2061, 2127, 1978
2174, 2958, 1978, 2127,  511
2175,  323, 1949, 1980, 2037
2176, 2124, 1980, 2184,  308
2177,  231, 1959, 1981, 2087
2178, 2162, 3045, 2225, 3013
2179, 1984, 2084, 3060, 2143
2180, 2122, 1984, 2143, 3076
2181, 2138, 1986, 2085, 3075
2182, 2896, 1987, 1884, 1974
2183, 2059, 1989,  453, 3031
2184, 2823, 1990, 1498, 2829
2185,  569, 2063, 2160, 1991
2186, 2968, 1991, 2160,  523
2187, 2090, 1992, 1778, 2828
2188,  641, 2684, 1992, 2090
2189,  345, 1632, 1993, 2404
2190, 2980, 2966, 1994, 2982
2191, 2132, 1995,  285, 2177
2192, 2120, 2033,  504, 1996
2193, 2121, 1998, 3003, 2957
2194,  486, 1801, 3003, 1998
2195,  529, 1915, 1826, 1805
2196,  250, 2249, 1999, 2060
2197, 2001,  995, 1074,  640
2198,  299, 2226, 2002, 2056
2199, 2170, 2003,  322, 2124
2200,  321, 1556, 2099, 2940
2201, 2006, 3099, 2139,  305
2202, 2007,  516, 2095, 2164
2203, 2007, 2164, 2519,  515
2204,  519, 2924, 2285, 2317
2205, 2011, 3018, 3012, 2914
2206, 2013, 1814, 2041,  440
2207, 1947, 2014, 2289,  506
2208, 2022, 2015,  273, 1861
2209, 2288, 2319,  272, 2234
2210, 2779, 2049, 2019, 2100
2211, 2368, 2394, 2404,  346
2212,  166, 2368, 2333, 3005
2213, 2025,  457, 2086, 2957
2214,  645, 1822, 2030, 2807
2215, 2031, 2822, 2835, 1255
2216, 2089, 2032,  208, 3026
2217,  468, 1831, 2033, 2107
2218, 2034, 3054, 2696, 3023
2219,  509, 1830, 2034, 3023
2220, 1961, 2111,  336, 2050
2221, 2213, 2040,  407, 2142
2222, 2182, 2042, 2106,  473
2223,  508, 1813, 2042, 2128
2224,  258, 3007, 2043, 2126
2225, 2117, 2171,  209, 2264
2226,  222, 1956, 2044, 2058
2227, 1810,  530, 2125, 2046
2228, 2180, 2047, 2104,  485
2229, 2204, 2048, 2102,  490
2230, 2093, 2051,  264, 2166
2231, 2060, 2112, 3008,  250
2232, 2170, 2320,  307, 1924
2233,  167, 2091, 2054, 3052
2234,  188, 1921, 2054, 2091
2235,  277, 1703, 2055, 2187
2236, 2990, 2055, 1703, 2948
2237, 2113, 2972, 2119, 2149
2238, 2277, 2167, 3031, 2678
2239, 1824, 2059, 3058,  454
2240, 2062, 2148, 2063,  569
2241, 2062,  569, 2893, 2861
2242, 2196, 2097, 2160, 2063
2243,  558, 2137, 2064, 2151
2244, 2377, 2065,  176, 2228
2245,  974, 1111, 2782, 2066
2246, 2221, 2155,  616, 2250
2247, 2067,  558, 2151, 2028
2248, 2220, 2154,  628, 2246
2249, 2068,  570, 2148, 2029
2250,  520, 2709, 2191, 2071
2251, 2023, 2910,  519, 2317
2252, 2973, 2153, 2072, 2202
2253, 2126, 2259, 2306,  258
2254, 2996, 2307, 2128,  472
2255, 2971, 2074, 2189, 2235
2256,  414, 2020, 2075, 2188
2257,  195, 2201, 2076, 2147
2258, 2950, 2157, 1882, 1972
2259,  524, 2239, 2691, 2081
2260, 2082,  356, 2065, 2377
2261, 2152, 2082,  355, 2245
2262, 2937, 2195, 1585, 2083
2263, 3075, 2085, 1511, 1609
2264, 3054, 2088,  474, 2301
2265, 2088,  510, 1982, 3045
2266, 2032, 2089,  194, 2937
2267, 2089, 3026, 2117, 2264
2268,  584, 2049, 2090, 2828
2269, 2091,  167, 2205, 3121
2270, 2173, 2092,  361, 2227
2271, 2093, 2206, 3008, 2051
2272,  286, 2197, 2094, 2168
2273, 2165, 2095,  516, 1807
2274,  524, 2101, 2097, 2196
2275,  278, 2098, 3123, 2144
2276, 2098,  278, 2069, 2139
2277, 2099, 2218, 2785, 2140
2278,  488, 1825, 2101, 2157
2279,  490, 2102, 2955, 2115
2280, 2180,  484, 2141, 2709
2281, 2035, 2105, 3049,  244
2282, 3023, 2106, 2997,  509
2283, 3016, 2129, 2183,  469
2284, 1964, 2108, 2781,  617
2285, 2174, 2108,  560, 2186
2286, 2808, 1963, 2852, 2860
2287, 2109,  572, 2891, 2172
2288, 2192, 3005, 2333, 2286
2289,  280, 2052, 2209, 2211
2290, 2208, 2270, 2187,  278
2291, 1930, 2051, 3008, 2112
2292, 2224, 2113, 2149,  216
2293, 2113,  217, 1969, 2972
2294, 2230, 2114, 2118, 2178
2295,  309, 1979, 2114, 2176
2296, 2115,  526, 1970,  490
2297, 2176, 2114, 2230,  282
2298, 2119,  202, 2179, 2149
2299,  485, 2104, 2121, 2957
2300, 2146, 2122, 3076, 3077
2301,  426, 1885, 2122, 2146
2302,  483, 2123, 2138, 2252
2303,  484, 1888, 2123, 2141
2304, 2170, 2124,  308, 2320
2305, 2709,  520, 2047, 2180
2306, 2190, 2306, 2259, 2287
2307, 2130, 2186,  560, 2941
2308, 2292, 2243, 2185, 2175
2309, 2909, 2131, 2891,  572
2310, 2322, 2356,  558, 2067
2311,  512, 2244, 2902, 2137
2312, 2252, 3105, 3063, 2219
2313, 2141, 2123,  483, 2443
2314, 2111, 2140, 2785,  336
2315, 2191, 2443, 2232, 2924
2316,  427, 2142, 1983, 2276
2317, 2358, 2439, 2308, 2341
2318, 3076, 2143,  425, 3103
2319, 2056, 2208, 2210,  299
2320, 2145,  469, 2183, 2107
2321, 2146, 2275, 2215,  426
2322, 2212,  194, 2089, 2264
2323, 2224,  216, 3027, 2161
2324, 2201, 2150,  181, 2076
2325, 2535, 2504,  173, 2214
2326, 2446, 2487,  369, 2644
2327,  387, 2207, 2153, 2973
2328, 2216, 2153, 2207,  405
2329, 2156, 1657,  408, 1815
2330, 2158, 1804, 1907, 1839
2331, 2224, 1981,  217, 2113
2332, 2161, 3027, 2360,  230
2333, 3045, 1982, 3004, 2225
2334, 2162,  475, 2363,  474
2335, 2163,  188, 2091, 3121
2336,  479, 2516, 2519, 2164
2337,  251, 2206, 2248, 2447
2338, 2219, 3028, 2309, 2252
2339, 3058, 2167, 3028, 2219
2340, 2916, 2169, 2102, 2048
2341, 2175, 2169,  525, 2292
2342, 2891, 2131, 2185, 2243
2343,  346, 2092, 2173, 2677
2344, 2265, 2251, 2176,  282
2345, 2178, 3080, 2231, 2284
2346,  216, 2149, 2179, 2256
2347, 2229, 2179,  202, 2280
2348, 2086, 2701,  485, 2957
2349, 2181, 2105, 2697,  243
2350, 2396, 2367,  472, 2182
2351, 2186,  514, 2293, 2240
2352, 2188, 2257, 2291, 2236
2353, 2189, 2258, 2290, 2235
2354, 2074, 2971,  507, 2021
2355,  272, 2073, 2190, 2234
2356, 2071, 2191, 2924,  519
2357, 2192, 2286, 2233, 3095
2358, 2391, 2415, 2238,  297
2359, 3135, 2271, 2331, 2194
2360,  194, 2147, 2195, 2937
2361, 2144, 2210, 2208,  278
2362, 2239, 2321, 2263, 2691
2363, 2197, 2338, 2294, 2241
2364,  223, 2103, 2198, 2423
2365, 2198,  236, 2298, 2255
2366, 2902, 2244, 2242, 2981
2367, 2127, 2902, 2981,  511
2368, 2274, 2237, 2199, 2326
2369,  175, 2078, 2199, 2426
2370, 2237, 2377, 2426, 2199
2371,  370, 2355, 1934, 2217
2372, 2355, 2973, 2202, 1934
2373, 2781, 2108, 2203, 2312
2374, 2921, 2204,  490, 1970
2375, 1672, 2204, 2921, 1516
2376, 3095, 2247, 2205,  167
2377, 2390, 2222,  168, 2435
2378, 2375, 3047, 2400, 2383
2379, 2207,  387, 2268, 3034
2380, 2299,  308, 2184, 2251
2381,  281, 2211, 2209, 2299
2382, 2214,  173, 2452, 2273
2383, 2216, 2308, 2699, 1967
2384, 2167, 2277, 2261,  482
2385, 2321, 2220,  571, 2263
2386, 2322, 2221,  559, 2262
2387, 2279, 2348, 2280, 2223
2388,  202, 3042, 2223, 2280
2389, 1774, 2946, 2431, 2912
2390, 2422,  299, 2210, 2271
2391, 2422, 2310, 2226,  299
2392, 2227,  361, 2980, 2982
2393, 2434, 2325,  347, 2282
2394, 2228, 2954, 2426, 2377
2395, 2231, 2475, 3109, 2284
2396, 2332, 2974, 2232, 2296
2397, 2247, 3095, 2233, 2260
2398, 2288, 2234, 2334, 3110
2399, 2289, 2335, 2478,  506
2400, 2335, 2971, 2235,  471
2401, 2336, 2477, 2992, 2236
2402,  414, 2188, 2236, 2992
2403,  297, 2238, 2193, 2311
2404, 2243, 2292, 2263,  571
2405, 2240, 2293, 2262,  559
2406, 2174, 2186, 2240,  559
2407,  525, 2691, 2263, 2292
2408,  476, 2266, 2244, 2295
2409, 2152, 2245, 3019,  369
2410, 2274, 2278,  355, 2237
2411, 2246, 2172,  571, 2220
2412,  168, 2205, 2247, 3140
2413, 2375, 3048, 2298, 2249
2414, 1999, 2249, 2298,  236
2415, 2250, 2174,  559, 2221
2416, 3105, 2252, 2138, 3075
2417, 2272, 2253,  481, 2678
2418, 3054, 2301,  473, 2696
2419, 2254,  230, 2302, 2697
2420,  237, 2458, 2297, 3048
2421, 2379, 2300,  215, 2672
2422, 2305, 2291, 2257,  441
2423, 2304, 2290, 2258, 3040
2424, 2287, 2259, 2303,  271
2425, 2316, 2260,  348, 2433
2426, 2354, 2318, 2261, 2926
2427, 2337,  512, 2356, 2397
2428, 2321, 2239,  570, 2068
2429, 2264, 2378, 2470, 2212
2430, 2346, 2265,  282, 2409
2431, 1686, 1731, 2267, 3064
2432, 2538, 2324, 3081, 3114
2433, 2270, 1904,  277, 2187
2434, 2415, 3120,  298, 3135
2435, 2277, 2678,  481, 2969
2436, 2272, 2678, 3067, 2351
2437, 2278, 2274,  354, 3051
2438, 2276, 2328, 2350,  427
2439,  354, 2382, 2464, 3051
2440, 2245,  355, 2278, 3009
2441, 2314, 2279,  187, 2352
2442,  201, 2229, 2280, 2348
2443, 2384, 2281,  377, 2963
2444, 2677,  347, 2286, 2333
2445, 3106, 2374, 2385,  294
2446, 2409,  295, 2380, 2346
2447, 2287,  271, 3102, 2334
2448, 2234, 2190, 2287, 2334
2449,  471, 2235, 2290, 2366
2450, 2962, 1940, 2914, 3012
2451, 2291,  415, 2336, 2236
2452, 2500, 2695,  514, 2466
2453, 2262, 2293,  513, 2397
2454, 2338, 2197,  286, 1816
2455,  513, 2365, 2337, 2397
2456, 2318, 2332,  482, 2261
2457,  224, 2423, 2297, 2458
2458,  308, 2299, 2209, 2320
2459, 2339, 2360, 2379,  229
2460,  243, 2697, 2302, 2459
2461, 2339, 2302,  230, 2360
2462, 2303,  257, 2342, 2364
2463, 2366, 2290, 2304, 3041
2464,  508, 2128, 2307, 2925
2465, 2358, 3103,  425, 2439
2466, 2308, 2439, 3060, 2699
2467,  482, 2309, 3028, 2167
2468, 2422,  298, 3120, 2310
2469,  296, 2345, 2311, 2347
2470, 2313, 3097, 2372, 2326
2471,  354, 2274, 2326, 2372
2472, 2314, 2517, 2348, 2279
2473,  265, 3091, 2315, 2353
2474, 2391, 2315, 3120, 2415
2475, 2317, 1936, 2009, 2023
2476, 3018, 2011,  414, 2992
2477, 2319, 1951, 2015,  272
2478, 2446, 2323, 2355,  370
2479, 2424, 2323, 2446, 2644
2480, 2388,  404, 3082, 2359
2481, 3034, 2268, 3081, 2324
2482,  348, 2476, 3161, 2433
2483, 2350, 2328, 3067,  453
2484, 2329, 2393, 2357,  480
2485, 3103, 2358, 2724, 2349
2486,  279, 2331, 2144, 3123
2487, 3135, 2194, 2238, 2415
2488, 2004,  284, 2374, 3106
2489, 2368,  166, 2024, 2394
2490,  346, 2677, 2333, 2368
2491,  292, 2294, 2441, 3083
2492, 2478, 2335, 2482,  470
2493, 2336,  397, 2484, 2477
2494, 3100, 2362,  446, 3101
2495, 2724, 2358,  424, 2455
2496, 2418,  257, 2181,  243
2497, 2364, 2342, 2649,  270
2498, 3041, 2671, 3020, 2366
2499, 2419, 2369, 3016,  469
2500, 2344, 2670, 2370, 2305
2501,  297, 2311, 2345, 2371
2502, 2646, 2724, 2455,  450
2503, 2351, 3067, 2328,  452
2504,  186, 2529, 2389, 3173
2505,  479, 2164, 2357, 2713
2506, 2439,  425, 2143, 3060
2507, 2300, 2379, 2360, 3027
2508, 2302, 2339, 2361, 2459
2509, 2301, 2362, 2417,  473
2510, 2363,  475, 2590, 2407
2511,  256, 2418,  242, 2654
2512,  270, 2467, 2666, 2364
2513,  477, 2490, 2939, 2365
2514, 2337, 2365, 2939, 2295
2515, 2304, 2343, 3088, 3041
2516, 2396, 2417,  445, 2454
2517, 2396, 2454, 3094, 2367
2518, 2453, 2369, 2419,  470
2519, 3093, 2372, 3097,  353
2520, 2347, 2346, 2380,  296
2521, 3065, 2386,  362, 2373
2522, 2387,  284, 2177, 2376
2523, 2387, 2385, 2374,  284
2524,  237, 3048, 2375, 2383
2525, 2385, 2387,  293, 2428
2526, 2470, 2378, 2399, 3010
2527, 2469, 2380,  295, 2543
2528,  173, 2473, 2381, 2452
2529, 3093, 2382,  354, 2372
2530, 2327, 3051, 2464, 2497
2531, 2483, 2457, 2383, 2400
2532, 3065, 2384,  378, 2386
2533, 2460, 2386, 2494, 3111
2534, 2324,  404, 2388, 3034
2535, 2517,  200, 3172, 3146
2536, 3173, 2314, 2352,  186
2537, 2420, 2390, 2435,  169
2538, 2392, 3116, 2447, 2248
2539, 1881, 2394, 2024, 2898
2540, 2416,  292, 3083, 3102
2541, 2467, 2395, 2416, 2666
2542, 2396, 2182,  473, 2417
2543, 2345,  296, 2652, 2398
2544, 2392, 2414, 2449, 3116
2545,  209, 2171, 2450, 2411
2546,  481, 2269, 2926, 2969
2547, 3047, 2375, 2249,  250
2548, 2483, 2400,  251, 2447
2549, 2401, 3086, 3107, 2408
2550, 2402, 2405, 2406,  424
2551, 2572, 2403, 2686, 3033
2552, 2572,  447, 3086, 2590
2553, 2404, 1993, 2092,  346
2554, 3084, 3082, 2479, 2557
2555,  423, 2406, 2405, 3084
2556, 2406, 2491, 2455,  424
2557, 2590,  475, 2403, 2572
2558, 3086, 2401, 2407, 2590
2559, 2493, 2408, 3107, 2531
2560, 2409,  282, 2284, 3109
2561,  224, 3112, 3071, 2423
2562,  196, 2425, 2412, 2551
2563, 2414,  266, 2489, 2449
2564,  252, 3152, 3116, 2449
2565, 2416, 3102,  271, 2666
2566, 2467,  270, 3141, 2438
2567, 2421,  992, 1086, 2780
2568, 3071, 2471, 2411, 2450
2569, 2445,  386, 2424, 2644
2570, 2427,  353, 2381, 2473
2571, 2428,  293, 2438, 2546
2572, 2536, 3155, 2503,  294
2573,  182, 3055, 2429, 2462
2574, 2150, 2201, 2429, 3055
2575,  377, 1812, 2474, 2963
2576,  349, 2465, 2433, 2507
2577, 2434, 2282,  362, 2413
2578, 3140, 2316, 2435,  168
2579, 2461, 2463,  353, 2427
2580, 3078, 2437, 2486, 2513
2581, 3019, 2437, 3078, 2445
2582, 2546, 2438, 3141, 3142
2583, 2443, 2191, 2709, 2141
2584, 3078, 2513,  386, 2445
2585, 2448, 2420,  169, 2556
2586, 2457, 2483, 3152,  252
2587,  186, 2420, 2448, 2488
2588, 2448, 2556, 3209, 2528
2589, 2489,  266, 2398,  267
2590,  223, 2423, 3071, 2450
2591, 2451, 2444, 2514,  448
2592, 2451,  448, 3033, 2686
2593, 2482, 2533, 2453,  470
2594,  445, 2653,  444, 2454
2595, 3101, 2682, 2657, 3100
2596,  446, 2408, 2456, 3101
2597, 2578, 2457,  252, 2719
2598, 3139, 3153, 3112,  224
2599, 2495,  469, 2145, 2120
2600,  445, 2417, 2362, 3100
2601, 2459, 2361, 3131,  242
2602, 2494, 2386,  378, 3053
2603, 2622, 3092, 3118, 3119
2604, 2461, 2506, 2537, 2463
2605, 3144, 3126, 2524, 2596
2606, 2436, 2463, 2537,  368
2607, 2436, 2464, 2382, 3093
2608, 2476,  348, 2325, 2434
2609, 2512, 2465,  349, 2553
2610,  169, 2435, 2465, 2512
2611,  478, 2500, 2466, 2516
2612, 3146, 2468, 2498,  201
2613,  214, 2499, 2468, 2515
2614,  296, 2380, 2469, 2652
2615, 2147, 2470, 3010,  195
2616, 2532, 3113, 3112, 3153
2617, 2472, 2540, 2505, 3053
2618, 2430, 2472, 3053,  378
2619, 2496,  172, 2705, 2574
2620,  294, 2503, 2475, 3132
2621, 3147, 3133, 3162, 3163
2622, 3161, 2476, 3159,  363
2623, 2484,  397, 2472, 2430
2624, 3012, 2477,  396, 2962
2625, 2419, 2485, 2478,  470
2626, 3131, 2361, 2481, 2655
2627, 2510, 2481,  229, 2542
2628, 3152, 2483, 2447, 3116
2629,  182, 2570, 2565, 2535
2630, 2485, 2648,  506, 2478
2631, 2497, 2520, 2486, 2327
2632, 2513, 2486, 2520,  385
2633, 2487, 2016, 2152,  369
2634, 2490,  477, 2518, 2514
2635, 3062,  423, 2530, 3030
2636,  450, 2663, 2575, 2995
2637, 3153, 3139, 2492,  225
2638, 2628,  421, 3143, 2618
2639, 2496,  352, 2461, 2427
2640, 3146,  201, 2348, 2517
2641, 2379, 2672, 2542,  229
2642,  215, 2468, 2499, 2672
2643, 2548, 2576,  478, 2575
2644, 2516, 2466, 2501, 2519
2645, 3079, 2502,  210, 2399
2646,  269, 2768, 3163, 3162
2647, 2504, 2535, 2565, 2567
2648, 3092, 2505,  379, 3118
2649, 2537, 2506, 2521,  367
2650, 2507,  364, 2526,  349
2651, 2539, 2508, 2564, 3150
2652, 2703, 2541,  228, 2738
2653, 2711, 2533, 3059, 3072
2654, 2534,  416, 2641,  398
2655, 2563, 3114, 3081,  386
2656,  449, 2544, 2598, 2562
2657,  200, 2595, 2515, 3172
2658,  200, 2517, 2389, 2568
2659, 2514, 2518,  449, 2562
2660, 2521,  352, 2549, 2573
2661, 2550, 2522,  368, 2558
2662, 2665, 2609, 3151,  385
2663, 2577, 2532, 3153,  225
2664, 3139,  224, 2458, 2492
2665,  225, 2492, 2523, 2589
2666, 2523,  238, 2552, 2579
2667, 2551, 2524, 3126,  196
2668, 2571, 2667, 2524, 2551
2669, 2608,  364, 2612, 3119
2670, 2526, 2591,  350, 2580
2671,  253, 2676, 2527, 2698
2672, 2602, 3186, 3209, 3200
2673, 2529, 2555, 2568, 2389
2674, 3030, 2530,  449, 2518
2675, 2572, 3033, 3085,  447
2676, 2493, 2531,  421, 2628
2677, 2532, 2577, 2554, 3113
2678,  442, 2453, 2533, 2711
2679,  397, 2534, 2540, 2472
2680,  182, 2535, 2214, 3055
2681,  404, 2324, 2538, 3115
2682, 2563,  386, 2513,  385
2683,  422, 3150, 2561, 2599
2684,  398, 2584, 2540, 2534
2685, 2510, 2542, 2773, 2758
2686, 3188, 2722, 3182,  267
2687, 2398, 2652, 3165,  267
2688, 2545, 2469, 2543, 3177
2689, 3142, 3141, 2583, 3164
2690, 2505, 2540, 2584,  379
2691, 2562, 2586,  448, 2514
2692, 2586, 2599, 2547,  448
2693, 2576, 2548,  477, 2365
2694,  478, 2559, 2995, 2575
2695, 2574, 2549,  352, 2496
2696, 2550,  384, 2665, 2522
2697, 2558,  368, 2537,  367
2698, 2579,  239, 2685,  226
2699, 3113, 2554, 2502, 2471
2700, 2675, 3217, 2569, 3204
2701, 2555, 3214, 3203, 2568
2702, 2556,  169, 2512, 2750
2703, 2479, 2539, 3129, 2557
2704, 2598, 3129,  422, 3087
2705, 2995, 2559, 2581, 2594
2706, 2560,  214, 2515, 2595
2707, 2595,  200, 2568, 3203
2708, 2539, 3150,  422, 3129
2709, 3170, 2582, 2592, 2561
2710, 3169, 2582, 3170, 2593
2711, 3137, 2564, 2538, 3114
2712,  183, 2567, 2565, 2596
2713, 2624,  383, 2617, 2610
2714,  384, 2550, 2566, 2624
2715, 2645, 2567,  183, 3145
2716,  172, 2504, 2567, 2645
2717, 3202, 3217, 3214, 2555
2718, 2569, 3205, 2588, 2601
2719, 2565, 2570, 3144, 2596
2720, 2667, 2571,  211, 2752
2721, 2547, 3085, 3033,  448
2722, 2521, 2573, 2603,  367
2723, 2548, 2575, 2663, 2998
2724, 2695,  513, 2293,  514
2725, 2554, 2577,  211, 2571
2726, 2676, 2719,  252, 2449
2727, 2676,  253, 2647, 2719
2728, 2646, 2594,  451, 2330
2729, 2593, 3170, 2564, 3137
2730, 3156,  403, 2610, 2614
2731, 2649, 2583, 3141,  270
2732, 2583, 2649, 2729, 3183
2733, 3087,  422, 2599, 2586
2734, 2718, 2585, 2589,  226
2735, 2587, 2606, 3189, 2566
2736, 2528, 3209, 3186, 3206
2737, 2600,  364, 2608, 2613
2738,  350, 2591,  365, 2692
2739, 3143, 3128, 2592, 3156
2740, 3151, 2609, 3169, 2593
2741,  199, 2714, 3207, 2597
2742, 2586, 2562, 2598, 3087
2743, 2656, 3108,  421, 2531
2744, 2600, 2613, 2619, 2664
2745, 3204, 3184,  198, 2675
2746,  170, 2710, 2602, 3200
2747, 2643, 2602, 2710, 2721
2748, 2607, 2603, 2573,  366
2749,  183, 2596, 2604, 2662
2750, 2610, 2605,  384, 2624
2751, 2582,  403, 3156, 2592
2752,  382, 2611, 2606, 2607
2753, 3216, 2623, 2632, 3219
2754, 2612,  363, 2622, 3119
2755, 2665,  385, 2520, 2522
2756,  384, 2605, 2609, 2665
2757, 2617, 3213, 2634,  402
2758, 3189, 2606, 2611,  383
2759, 2612, 2525, 3161,  363
2760,  380, 2621, 2615, 3197
2761, 2619, 2613,  380, 3197
2762, 3213, 2611, 2620, 2634
2763, 2639, 2615, 2630, 3167
2764,  379, 2584, 2633, 2631
2765, 2618, 2625, 3157, 2628
2766, 2623, 2619,  381, 2632
2767, 2664, 2619, 2623, 2669
2768, 2631, 2621,  380, 2616
2769, 2460,  363, 3159, 2413
2770, 3219, 3208, 2635, 3218
2771,  383, 2624, 2566, 3189
2772, 2625,  402, 2629, 3157
2773, 3216, 2627,  382, 2636
2774, 3215, 2635,  400, 2637
2775, 2628, 3157, 3134, 2493
2776, 3157, 2629,  420, 3134
2777, 2639,  400, 2635, 3208
2778, 2636,  382, 2607,  366
2779, 2584,  398, 2638, 2633
2780, 3179, 2633, 2638,  399
2781, 2650, 2704, 2640,  401
2782, 2669, 2636,  366, 2746
2783, 2726, 2637,  400, 3166
2784,  401, 3215, 2637, 2650
2785,  381, 2615, 2639, 3208
2786,  419, 3130, 2640, 2704
2787, 2674, 2634, 2640, 3130
2788, 2641,  416, 3098, 2702
2789, 2735, 2755, 3210, 2723
2790, 3176,  351, 2549, 2574
2791, 3145, 2721, 2739, 2645
2792, 3145,  183, 2662,  184
2793, 2594, 2646,  450, 2995
2794, 3180, 2578, 2719, 2647
2795, 2758, 2773, 2716, 3171
2796, 2660, 3183,  255, 2759
2797, 2726, 2725, 2650, 2637
2798, 2687, 2734, 3160,  399
2799,  444, 2749, 2728, 3089
2800, 2655, 2654,  242, 3131
2801, 2657,  419, 2743, 2653
2802, 2667, 2727,  197, 2524
2803, 2662, 2604, 2673,  184
2804, 2659,  351, 2735, 2692
2805, 2768, 3164, 2660, 2661
2806, 2491, 3062, 3030, 2663
2807, 2727, 2667, 2752, 2733
2808, 2716, 2668, 2753, 3171
2809,  365, 2664, 2669, 2746
2810,  416, 2370, 2670, 3098
2811, 3096, 2670, 2344,  442
2812, 2732, 3073, 2728, 2762
2813, 3020, 2671, 3073,  443
2814, 2657, 2682, 3130,  419
2815,  420, 2629, 2674, 3125
2816, 2765, 2744, 2675,  198
2817, 3217, 2675,  199, 3214
2818, 1515, 2679, 2948, 1703
2819, 3125, 2456, 3134,  420
2820, 2736, 2685,  239, 2720
2821,  417, 2734, 2687, 2702
2822, 2687,  399, 2638, 3148
2823, 2696,  473, 2106, 3023
2824, 3165, 2545, 3188,  267
2825, 1891, 2699, 3060, 2084
2826,  241, 2541, 2703, 3175
2827,  172, 2645, 2739, 2705
2828,  171, 2642, 2705, 2739
2829, 2747, 2706, 2585, 2718
2830, 2717, 2706, 2747,  212
2831, 3211, 2750, 2723, 3210
2832, 2732, 2742,  443, 3073
2833, 2545, 3177, 2712, 3188
2834, 2754, 2661, 2660, 2759
2835, 2713, 2357, 2393,  451
2836, 3207, 2714, 2730,  213
2837, 3171, 2771, 3158, 2758
2838,  211, 2706, 2717, 2752
2839, 2767, 2747, 2718, 3195
2840, 2774,  226, 2737, 3181
2841, 2761, 2770,  253, 2698
2842, 3182, 2722, 2698, 2527
2843, 2735, 2723,  350, 2692
2844, 2749, 2743, 2763,  418
2845, 3167, 3166,  400, 2639
2846, 2726,  418, 2763, 2725
2847,  197, 2727, 3168, 2658
2848, 2749,  444, 2653, 2743
2849, 3191,  171, 2710,  170
2850,  417, 2740, 2742, 2732
2851, 2765, 3154, 3178, 2744
2852, 2732, 2762, 3124,  417
2853, 3160, 2734, 3149, 2651
2854, 2755, 2735,  351, 3176
2855,  240, 2741, 2772, 2757
2856, 2737,  226, 2685, 2757
2857, 3096, 2740, 3098, 2670
2858, 3194, 3193, 3212, 2766
2859, 2703, 2741, 3193, 3175
2860, 2765,  198, 2733, 3154
2861,  241, 3175, 2751, 2745
2862, 2748, 2654, 2745, 2751
2863, 2749,  418, 2762, 2728
2864,  255, 2748, 2751, 2769
2865, 2753,  213, 2756, 3196
2866, 3174, 3158, 2771, 3181
2867, 3196, 2774, 3181, 2771
2868, 2756,  213, 2730, 3192
2869, 2510, 2758, 3158,  228
2870,  227, 2772, 2738, 3174
2871, 2769, 3198, 2759,  255
2872, 2760,  418, 2726, 3166
2873, 2471, 2502, 3079, 2411
2874, 2764, 2770, 2766, 3212
2875,  212, 2747, 2767, 3192
2876, 3195, 2774, 3196, 2756
2877, 3164, 2768,  269, 3142
2878, 2761,  254, 2766, 2770
2879, 2499,  214, 2716, 2773
2880,  226, 2774, 3195, 2718
2881, 3181, 2737,  227, 3174
2882, 2808, 2780,  629, 1963
2883,  975, 1050, 2786, 2787
2884, 2788, 1749, 1784,  219
2885, 2790, 1355, 2864, 1530
2886, 2795, 1349, 2865, 1522
2887, 2796,  434, 1298, 2838
2888,  464,  939, 2798, 2799
2889, 2814, 2798, 1170, 1297
2890, 2805, 1306,  657, 1294
2891, 2200, 2808, 2860, 2109
2892, 2809, 1348, 2862, 1521
2893, 1465, 1567, 2811, 2813
2894,  595, 2817, 1278, 2815
2895, 2824, 1756,  248, 1817
2896, 2827, 1734, 2906, 1553
2897, 1753, 1876, 2830, 2831
2898, 2833,  909, 1179, 1245
2899, 2907, 2834, 1193, 1296
2900, 1426, 2804, 2836, 2837
2901, 2841, 1985, 1835, 1650
2902, 1631, 2903,  439, 2821
2903, 2815, 1246, 1342,  595
2904, 2848, 2842, 1472, 1388
2905, 2843, 1430, 2888, 2889
2906, 2844, 1630,  561, 1900
2907, 1964, 1786, 2845, 2846
2908, 2850, 1625,  573, 1899
2909, 1963, 1787, 2851, 2852
2910, 2852, 2851, 2909,  572
2911, 2853, 1611, 2890,  592
2912, 2919,  496, 1334, 1563
2913, 2869, 1862, 2914, 1940
2914,  584, 2828, 2871, 2884
2915, 1568, 1652, 2873, 2874
2916, 1484, 2877,  179, 2915
2917,  325, 2879, 2878, 2918
2918, 1383, 1259, 2878, 2879
2919, 2831, 2870,  395, 1753
2920,  566, 2008, 2883, 1933
2921, 2008,  520, 2071, 2883
2922, 2023, 1933, 2883, 2910
2923, 2888,  593, 1280, 2889
2924, 2912, 2894, 1665, 1774
2925, 2920, 2904, 1421, 2855
2926, 2913, 1351, 1441, 2930
2927, 2976, 1674, 1776,  175
2928, 2918, 1495, 2960, 1615
2929, 2922, 1775, 2966, 1890
2930,  409, 1188, 1340, 2923
2931, 2924, 2232, 2974, 2285
2932, 2969, 2926, 2261, 2277
2933,  467, 1541, 2928, 2929
2934, 1997, 2096, 1639,  549
2935, 2931, 1716, 1661, 2944
2936, 2932, 1504,  180, 1674
2937, 2933, 1991, 2968, 1962
2938, 2934, 1529,  568, 1679
2939,  221, 1662, 2935, 2936
2940, 2936, 2935, 2978, 2979
2941, 3021, 2938,  232, 1725
2942, 2942,  489, 1673, 1573
2943, 2943,  530, 1810, 1593
2944, 2983, 2945,  287, 1614
2945, 2431, 2946, 2983, 1702
2946, 2950, 2949,  488, 2157
2947, 2951, 1525,  555, 1691
2948, 3004, 2958,  511, 2225
2949, 2965, 2964, 1811, 3007
2950,  361, 1890, 2966, 2980
2951,  475, 2162, 3013, 2975
2952, 3001, 2977,  457, 2025
2953,  427, 2350, 2999, 1897
2954, 2982, 1994, 2281, 2373
2955, 2984, 3015, 3046, 2073
2956, 2986, 1359, 1420,  458
2957,  318, 1601, 3066, 2987
2958, 2988, 2987, 3066, 3035
2959, 1850, 2952, 2989, 3011
2960, 1489, 1477, 3022, 2991
2961, 2994, 2158, 1839, 1737
2962, 2996, 3070, 3040, 2258
2963, 2025, 2957, 3003, 3014
2964, 2110, 3005, 2192, 3052
2965, 3006, 1690, 3050,  244
2966, 3006,  244, 3049, 1811
2967, 3007,  258, 3015, 2965
2968, 3013, 2981, 2242, 2975
2969, 2225,  511, 2981, 3013
2970, 3046, 3015,  258, 2306
2971, 2129, 3016, 2369,  441
2972, 2511, 3020,  443, 3059
2973, 1468, 3024, 3025,  320
2974, 2058, 2117, 3026,  208
2975, 1888,  484, 2701, 3029
2976, 3031,  453, 3067, 2678
2977, 2988, 3035, 3036,  304
2978, 3036, 3035, 3066, 3061
2979, 3038, 1685, 3044, 1801
2980, 3039, 2275,  451, 2393
2981, 3104, 3070, 2367, 3094
2982, 3043, 2053,  283, 3080
2983, 1896, 3001, 3044, 1685
2984, 3072, 3059,  443, 2742
2985, 1492, 3061, 3066, 1601
2986,  455, 3064, 3063, 3105
2987, 3070, 2996,  472, 2367
2988, 3075, 1609,  455, 3105
2989, 2330, 2146, 3077, 2349
2990, 2405, 2359, 3082, 3084
2991, 3082,  404, 3115, 2479
2992, 3107, 3086,  447, 2531
2993, 3088, 2343, 3127, 3117
2994, 3089, 3088, 3117,  444
2995, 3091, 2310, 3120, 2315
2996, 3043, 3080, 2178, 2118
2997, 3092, 2622, 3111, 2494
2998,  444, 3117, 3127, 2454
2999, 2139, 3099, 3123, 2098
3000, 3108, 2547, 2599, 3128
3001, 2409, 3109, 3122,  295
3002, 3102, 3083, 3110, 2334
3003, 2471, 3071, 3112, 3113
3004, 3119, 3118, 2616, 2608
3005, 2734,  417, 3124, 3149
3006,  423, 3084, 2557, 2530
3007, 3108, 3128, 3143,  421
3008, 3093,  353, 2463, 2436
3009, 2544, 2557, 3129, 2598
3010, 2475, 2503, 3162, 3133
3011, 2509, 3122, 3133, 3147
3012, 2271, 3135,  298, 2422
3013, 3136, 2371,  266, 2353
3014, 3138, 2563,  385, 3151
3015, 3137, 3138, 3151, 2593
3016, 2454, 3127, 3104, 3094
3017, 2515, 2468, 3146, 3172
3018, 2561, 3150, 2564, 3170
3019, 3154, 2717,  212, 3178
3020, 2738,  228, 3158, 3174
3021, 3160, 2630, 3179,  399
3022, 2660, 3164, 2583, 3183
3023, 2651, 2760, 3166, 3167
3024, 3168,  198, 3184, 2658
3025, 2771, 3171, 2753, 3196
3026, 3177,  268, 3187, 2712
3027, 3178,  212, 3192, 2730
3028, 3162, 2503, 3155,  269
3029, 3185, 2588, 3205,  185
3030, 2602, 2643, 3185, 3186
3031, 2761, 3199, 2712, 3187
3032, 2712, 3199, 2722, 3188
3033, 3190, 2617,  402, 2625
3034, 3211, 2731, 3191,  170
3035, 2751, 3175, 3193, 3194
3036, 3212, 3193, 2741,  240
3037, 3198, 3194, 2766,  254
3038, 2761, 3187, 2754,  254
3039, 2750, 3200, 3209, 2556
3040, 3201, 2488, 3206,  185
3041, 3202, 3201,  185, 3205
3042,  199, 2597, 3203, 3214
3043, 3205, 2569, 3217, 3202
3044,  381, 3208, 3219, 2632
3045, 3215, 2627, 3218, 2635
3046, 2754, 2759, 3198,  254
3047,  170, 3200, 2750, 3211
3048, 3219, 3218, 2627, 3216
*Nset, nset=_PickedSet99, internal, generate
    1,  3219,     1
*Elset, elset=_PickedSet99, internal, generate
    1,  3048,     1
*Nset, nset=Fixed
  15,  16,  17,  18,  19,  20,  21,  22,  23,  24,  25,  26,  27,  28,  29,  30
  31,  32,  33,  34,  35,  36,  37,  38,  39,  40,  41,  42,  43,  44,  45,  46
  47,  48,  49,  50,  51,  52,  53, 677, 678, 679, 680, 681, 682, 683, 684, 685
 686, 687, 688, 689, 690, 691, 692, 693, 694, 695, 696, 697, 698, 699, 700, 701
 702, 703, 704, 705, 706, 707, 708, 709, 710, 711, 712, 713, 714, 715, 716, 717
 718, 719
*Nset, nset=TopNodeSet
  54,  55,  56,  57,  58,  59,  60,  61,  62,  63,  64,  65,  66,  67,  68,  69
  70,  71,  72,  73,  74,  75,  76,  77,  78,  79,  80,  81,  82,  83,  84,  85
  86,  87,  88,  89,  90,  91,  92,  93,  94,  95,  96,  97,  98,  99, 100, 101
 113, 720, 721, 722, 723, 724, 725, 726, 727, 728, 729, 730, 731, 732, 733, 734
 735, 736, 737, 738, 739, 740, 741, 742, 743, 744, 745, 746, 747, 748, 749, 750
 751, 752, 753, 754, 755, 756, 757, 758, 759, 760, 761, 762, 763, 764, 765, 766
 767, 768, 769, 770, 771
*Elset, elset=_pressure_S3, internal
    6,   10,   11,   13,   92,  564,  637, 1076, 1078, 1080, 1081, 1082, 1432
*Elset, elset=_pressure_S2, internal
  435,  507,  508,  565,  591,  597,  602,  603,  607,  636,  661,  662,  667,  671,  678,  679
  680, 1184, 1185, 1188, 1193, 1196, 1197, 1198, 1200, 1201, 1202, 1204, 1205, 1206, 1223, 1233
 1246, 1272, 1417, 1419, 1507, 1515
*Elset, elset=_pressure_S1, internal
   70,   82,   83,   88, 1194, 1212, 1250, 1251, 1253, 1429, 1431, 1433, 1434, 1503, 1504
*Elset, elset=_pressure_S4, internal
    2,    3,    4,  405,  415,  416,  424,  425,  434,  462,  471,  472,  479,  485,  486,  494
  495,  505,  506,  535,  553,  558,  559,  569,  575,  581,  586,  592,  598,  608,  612,  613
  614,  617,  618,  622,  623,  627,  632,  641,  645,  646,  654,  657,  675,  676,  874,  908
  909, 1178, 1179, 1180, 1181, 1186, 1187, 1189, 1190, 1192, 1195, 1199, 1203, 1210
*Surface, type=ELEMENT, name=pressure
_pressure_S3, S3
_pressure_S2, S2
_pressure_S4, S4
_pressure_S1, S1
** Section: Section-1
*Solid Section, elset=_PickedSet99, material=Material-1
,
*End Part
**  
**
** ASSEMBLY
**
*Assembly, name=Assembly
**  
*Instance, name=Part-1-1, part=Part-1
          0.,         -1.5,           0.
*End Instance
**  
*End Assembly
** 
** MATERIALS
** 
*Material, name=Material-1
*Elastic
150000., 0.3
*Plastic, hardening=COMBINED, datatype=PARAMETERS, number backstresses=1
191.,0.,0.
*Cyclic Hardening, parameters
191., 583., 6.95
** ----------------------------------------------------------------
** 
** STEP: Step-1
** 
*Step, name=Step-1, nlgeom=YES, inc=10000
*Static
0.05, 1., 1e-05, 0.05
** 
** BOUNDARY CONDITIONS
** 
** Name: BC-1 Type: Displacement/Rotation
*Boundary
Part-1-1.Fixed, 1, 1
Part-1-1.Fixed, 2, 2
Part-1-1.Fixed, 6, 6
** 
** LOADS
** 
** Name: Load-1   Type: Pressure
*Dsload
Part-1-1.pressure, P, 20.
** 
** OUTPUT REQUESTS
** 
*Restart, write, frequency=0
** 
** FIELD OUTPUT: F-Output-1
** 
*Output, field
*Node Output
U, 
*Element Output, directions=YES
LE, P, PE, PEEQ, PEMAG, S
** 
** HISTORY OUTPUT: H-Output-1
** 
*Output, history, variable=PRESELECT
*End Step
